 DBCSR| CPU Multiplication driver                                           XSMM (U)
 DBCSR| Multrec recursion limit                                              512 (U)
 DBCSR| Multiplication stack size                                           1000 (D)
 DBCSR| Maximum elements for images                                    UNLIMITED (U)
 DBCSR| Multiplicative factor virtual images                                   1 (U)
 DBCSR| Use multiplication densification                                       T (D)
 DBCSR| Multiplication size stacks                                             3 (U)
 DBCSR| Use memory pool for CPU allocation                                     F (U)
 DBCSR| Number of 3D layers                                               SINGLE (U)
 DBCSR| Use MPI memory allocation                                              F (U)
 DBCSR| Use RMA algorithm                                                      F (U)
 DBCSR| Use Communication thread                                               T (U)
 DBCSR| Communication thread load                                             75 (D)
 DBCSR| MPI: My process id                                                     0
 DBCSR| MPI: Number of processes                                             128
 DBCSR| OMP: Current number of threads                                         4
 DBCSR| OMP: Max number of threads                                             4
 DBCSR| Split modifier for TAS multiplication algorithm                  1.0E+00 (U)


  **** **** ******  **  PROGRAM STARTED AT               2025-10-02 00:30:50.528
 ***** ** ***  *** **   PROGRAM STARTED ON                             n2lcn0151
 **    ****   ******    PROGRAM STARTED BY                              metdyn02
 ***** **    ** ** **   PROGRAM PROCESS ID                               1127782
  **** **  *******  **  PROGRAM STARTED IN /scratch/hpc-prf-metdyn/metdyn02_Remi
                                           /14_hBN/aug-SZV-MOLOPT/GAPW/kgrid/24

 CP2K| version string:                 CP2K version 2025.2 (Development Version)
 CP2K| source code revision number:                                  git:8d80afc
 CP2K| cp2kflags: omp libint fftw3 libxc libgrpp elpa parallel scalapack mpi_f08
 CP2K|             cosma xsmm plumed2 spglib libvori libbqb libvdwxc hdf5
 CP2K| is freely available from                            https://www.cp2k.org/
 CP2K| Program compiled at                         Mon Sep  8 11:02:08 CEST 2025
 CP2K| Program compiled on                                              n2login1
 CP2K| Program compiled for                                                local
 CP2K| Data directory path    /opt/software/pc2/EB-SW/software/CP2K/2025.2-foss-
 CP2K| Input file name                                                    GW.inp

 GLOBAL| Force Environment number                                              1
 GLOBAL| Basis set file name                                        BASIS_MOLOPT
 GLOBAL| Potential file name                                  GTH_SOC_POTENTIALS
 GLOBAL| MM Potential file name                                     MM_POTENTIAL
 GLOBAL| Coordinate file name                                      __STD_INPUT__
 GLOBAL| Method name                                                        CP2K
 GLOBAL| Project name                                                        hBN
 GLOBAL| Run type                                                         ENERGY
 GLOBAL| FFT library                                                       FFTW3
 GLOBAL| Diagonalization library                                            ELPA
 GLOBAL| Cholesky decomposition library                                ScaLAPACK
 GLOBAL| DGEMM library                                                      BLAS
 GLOBAL| Minimum number of eigenvectors for ELPA usage                        16
 GLOBAL| Orthonormality check for eigenvectors                          DISABLED
 GLOBAL| Matrix multiplication library                                     COSMA
 GLOBAL| All-to-all communication in single precision                          F
 GLOBAL| FFTs using library dependent lengths                                  F
 GLOBAL| Grid backend                                                       AUTO
 GLOBAL| Global print level                                               MEDIUM
 GLOBAL| MPI I/O enabled                                                       T
 GLOBAL| Total number of message passing processes                           128
 GLOBAL| Number of threads for this process                                    4
 GLOBAL| This output is from process                                           0
 GLOBAL| OpenMP stack size per thread (OMP_STACKSIZE)                    default
 GLOBAL| CPU model name                          AMD EPYC 7763 64-Core Processor
 GLOBAL| CPUID                                                              1002

 MEMORY| system memory details [Kb]
 MEMORY|                        rank 0           min           max       average
 MEMORY| MemTotal           1056620488    1056620468    1056620512    1056620488
 MEMORY| MemFree            1021520312    1013191836    1029856148    1023015159
 MEMORY| Buffers                132480         50212        132480         77257
 MEMORY| Cached               23369864      13488816      25230824      19259255
 MEMORY| Slab                  2087896       2087896       6738088       3959300
 MEMORY| SReclaimable           634892        634892       2783332       1434470
 MEMORY| MemLikelyFree      1045657548    1041270144    1045657548    1043786141


 *** Fundamental physical constants (SI units) ***

 *** Literature: B. J. Mohr and B. N. Taylor,
 ***             CODATA recommended values of the fundamental physical
 ***             constants: 2006, Web Version 5.1
 ***             http://physics.nist.gov/constants

 Speed of light in vacuum [m/s]                             2.99792458000000E+08
 Magnetic constant or permeability of vacuum [N/A**2]       1.25663706143592E-06
 Electric constant or permittivity of vacuum [F/m]          8.85418781762039E-12
 Planck constant (h) [J*s]                                  6.62606896000000E-34
 Planck constant (h-bar) [J*s]                              1.05457162825177E-34
 Elementary charge [C]                                      1.60217648700000E-19
 Electron mass [kg]                                         9.10938215000000E-31
 Electron g factor [ ]                                     -2.00231930436220E+00
 Proton mass [kg]                                           1.67262163700000E-27
 Fine-structure constant                                    7.29735253760000E-03
 Rydberg constant [1/m]                                     1.09737315685270E+07
 Avogadro constant [1/mol]                                  6.02214179000000E+23
 Boltzmann constant [J/K]                                   1.38065040000000E-23
 Atomic mass unit [kg]                                      1.66053878200000E-27
 Bohr radius [m]                                            5.29177208590000E-11

 *** Conversion factors ***

 [u] -> [a.u.]                                              1.82288848426455E+03
 [Angstrom] -> [Bohr] = [a.u.]                              1.88972613288564E+00
 [a.u.] = [Bohr] -> [Angstrom]                              5.29177208590000E-01
 [a.u.] -> [s]                                              2.41888432650478E-17
 [a.u.] -> [fs]                                             2.41888432650478E-02
 [a.u.] -> [J]                                              4.35974393937059E-18
 [a.u.] -> [N]                                              8.23872205491840E-08
 [a.u.] -> [K]                                              3.15774647902944E+05
 [a.u.] -> [kJ/mol]                                         2.62549961709828E+03
 [a.u.] -> [kcal/mol]                                       6.27509468713739E+02
 [a.u.] -> [Pa]                                             2.94210107994716E+13
 [a.u.] -> [bar]                                            2.94210107994716E+08
 [a.u.] -> [atm]                                            2.90362800883016E+08
 [a.u.] -> [eV]                                             2.72113838565563E+01
 [a.u.] -> [Hz]                                             6.57968392072181E+15
 [a.u.] -> [1/cm] (wave numbers)                            2.19474631370540E+05
 [a.u./Bohr**2] -> [1/cm]                                   5.14048714338585E+03
 

 CELL_TOP| Volume [angstrom^3]:                                        81.840700
 CELL_TOP| Vector a [angstrom     2.510     0.000     0.000   |a| =     2.510000
 CELL_TOP| Vector b [angstrom    -1.255     2.174     0.000   |b| =     2.510000
 CELL_TOP| Vector c [angstrom     0.000     0.000    15.000   |c| =    15.000000
 CELL_TOP| Angle (b,c), alpha [degree]:                                90.000000
 CELL_TOP| Angle (a,c), beta  [degree]:                                90.000000
 CELL_TOP| Angle (a,b), gamma [degree]:                               120.000000
 CELL_TOP| Numerically orthorhombic:                                          NO
 CELL_TOP| Periodicity                                                        XY

 GENERATE|  Preliminary Number of Bonds generated:                             0
 GENERATE|  Achieved consistency in connectivity generation.

 CELL| Volume [angstrom^3]:                                            81.840700
 CELL| Vector a [angstrom]:       2.510     0.000     0.000   |a| =     2.510000
 CELL| Vector b [angstrom]:      -1.255     2.174     0.000   |b| =     2.510000
 CELL| Vector c [angstrom]:       0.000     0.000    15.000   |c| =    15.000000
 CELL| Angle (b,c), alpha [degree]:                                    90.000000
 CELL| Angle (a,c), beta  [degree]:                                    90.000000
 CELL| Angle (a,b), gamma [degree]:                                   120.000000
 CELL| Numerically orthorhombic:                                              NO
 CELL| Periodicity                                                            XY

 CELL_REF| Volume [angstrom^3]:                                        81.840700
 CELL_REF| Vector a [angstrom     2.510     0.000     0.000   |a| =     2.510000
 CELL_REF| Vector b [angstrom    -1.255     2.174     0.000   |b| =     2.510000
 CELL_REF| Vector c [angstrom     0.000     0.000    15.000   |c| =    15.000000
 CELL_REF| Angle (b,c), alpha [degree]:                                90.000000
 CELL_REF| Angle (a,c), beta  [degree]:                                90.000000
 CELL_REF| Angle (a,b), gamma [degree]:                               120.000000
 CELL_REF| Numerically orthorhombic:                                          NO
 CELL_REF| Periodicity                                                        XY

 *******************************************************************************
                                    Kpoints
 *******************************************************************************
 BRILLOUIN| K-point scheme                                        Monkhorst-Pack
 BRILLOUIN| K-Point grid                                            24   24    1
 BRILLOUIN| Accuracy in Symmetry determination                      0.100000E-05
 BRILLOUIN| K-Point point group symmetrization                               OFF
 BRILLOUIN| Wavefunction type                                            COMPLEX
 BRILLOUIN| List of Kpoints [2 Pi/Bohr]                                      288
 BRILLOUIN| Number           Weight            X              Y              Z
 BRILLOUIN|     1           0.00347       -0.47917       -0.47917        0.00000
 BRILLOUIN|     2           0.00347       -0.47917       -0.43750        0.00000
 BRILLOUIN|     3           0.00347       -0.47917       -0.39583        0.00000
 BRILLOUIN|     4           0.00347       -0.47917       -0.35417        0.00000
 BRILLOUIN|     5           0.00347       -0.47917       -0.31250        0.00000
 BRILLOUIN|     6           0.00347       -0.47917       -0.27083        0.00000
 BRILLOUIN|     7           0.00347       -0.47917       -0.22917        0.00000
 BRILLOUIN|     8           0.00347       -0.47917       -0.18750        0.00000
 BRILLOUIN|     9           0.00347       -0.47917       -0.14583        0.00000
 BRILLOUIN|    10           0.00347       -0.47917       -0.10417        0.00000
 BRILLOUIN|    11           0.00347       -0.47917       -0.06250        0.00000
 BRILLOUIN|    12           0.00347       -0.47917       -0.02083        0.00000
 BRILLOUIN|    13           0.00347       -0.47917        0.02083        0.00000
 BRILLOUIN|    14           0.00347       -0.47917        0.06250        0.00000
 BRILLOUIN|    15           0.00347       -0.47917        0.10417        0.00000
 BRILLOUIN|    16           0.00347       -0.47917        0.14583        0.00000
 BRILLOUIN|    17           0.00347       -0.47917        0.18750        0.00000
 BRILLOUIN|    18           0.00347       -0.47917        0.22917        0.00000
 BRILLOUIN|    19           0.00347       -0.47917        0.27083        0.00000
 BRILLOUIN|    20           0.00347       -0.47917        0.31250        0.00000
 BRILLOUIN|    21           0.00347       -0.47917        0.35417        0.00000
 BRILLOUIN|    22           0.00347       -0.47917        0.39583        0.00000
 BRILLOUIN|    23           0.00347       -0.47917        0.43750        0.00000
 BRILLOUIN|    24           0.00347       -0.47917        0.47917        0.00000
 BRILLOUIN|    25           0.00347       -0.43750       -0.47917        0.00000
 BRILLOUIN|    26           0.00347       -0.43750       -0.43750        0.00000
 BRILLOUIN|    27           0.00347       -0.43750       -0.39583        0.00000
 BRILLOUIN|    28           0.00347       -0.43750       -0.35417        0.00000
 BRILLOUIN|    29           0.00347       -0.43750       -0.31250        0.00000
 BRILLOUIN|    30           0.00347       -0.43750       -0.27083        0.00000
 BRILLOUIN|    31           0.00347       -0.43750       -0.22917        0.00000
 BRILLOUIN|    32           0.00347       -0.43750       -0.18750        0.00000
 BRILLOUIN|    33           0.00347       -0.43750       -0.14583        0.00000
 BRILLOUIN|    34           0.00347       -0.43750       -0.10417        0.00000
 BRILLOUIN|    35           0.00347       -0.43750       -0.06250        0.00000
 BRILLOUIN|    36           0.00347       -0.43750       -0.02083        0.00000
 BRILLOUIN|    37           0.00347       -0.43750        0.02083        0.00000
 BRILLOUIN|    38           0.00347       -0.43750        0.06250        0.00000
 BRILLOUIN|    39           0.00347       -0.43750        0.10417        0.00000
 BRILLOUIN|    40           0.00347       -0.43750        0.14583        0.00000
 BRILLOUIN|    41           0.00347       -0.43750        0.18750        0.00000
 BRILLOUIN|    42           0.00347       -0.43750        0.22917        0.00000
 BRILLOUIN|    43           0.00347       -0.43750        0.27083        0.00000
 BRILLOUIN|    44           0.00347       -0.43750        0.31250        0.00000
 BRILLOUIN|    45           0.00347       -0.43750        0.35417        0.00000
 BRILLOUIN|    46           0.00347       -0.43750        0.39583        0.00000
 BRILLOUIN|    47           0.00347       -0.43750        0.43750        0.00000
 BRILLOUIN|    48           0.00347       -0.43750        0.47917        0.00000
 BRILLOUIN|    49           0.00347       -0.39583       -0.47917        0.00000
 BRILLOUIN|    50           0.00347       -0.39583       -0.43750        0.00000
 BRILLOUIN|    51           0.00347       -0.39583       -0.39583        0.00000
 BRILLOUIN|    52           0.00347       -0.39583       -0.35417        0.00000
 BRILLOUIN|    53           0.00347       -0.39583       -0.31250        0.00000
 BRILLOUIN|    54           0.00347       -0.39583       -0.27083        0.00000
 BRILLOUIN|    55           0.00347       -0.39583       -0.22917        0.00000
 BRILLOUIN|    56           0.00347       -0.39583       -0.18750        0.00000
 BRILLOUIN|    57           0.00347       -0.39583       -0.14583        0.00000
 BRILLOUIN|    58           0.00347       -0.39583       -0.10417        0.00000
 BRILLOUIN|    59           0.00347       -0.39583       -0.06250        0.00000
 BRILLOUIN|    60           0.00347       -0.39583       -0.02083        0.00000
 BRILLOUIN|    61           0.00347       -0.39583        0.02083        0.00000
 BRILLOUIN|    62           0.00347       -0.39583        0.06250        0.00000
 BRILLOUIN|    63           0.00347       -0.39583        0.10417        0.00000
 BRILLOUIN|    64           0.00347       -0.39583        0.14583        0.00000
 BRILLOUIN|    65           0.00347       -0.39583        0.18750        0.00000
 BRILLOUIN|    66           0.00347       -0.39583        0.22917        0.00000
 BRILLOUIN|    67           0.00347       -0.39583        0.27083        0.00000
 BRILLOUIN|    68           0.00347       -0.39583        0.31250        0.00000
 BRILLOUIN|    69           0.00347       -0.39583        0.35417        0.00000
 BRILLOUIN|    70           0.00347       -0.39583        0.39583        0.00000
 BRILLOUIN|    71           0.00347       -0.39583        0.43750        0.00000
 BRILLOUIN|    72           0.00347       -0.39583        0.47917        0.00000
 BRILLOUIN|    73           0.00347       -0.35417       -0.47917        0.00000
 BRILLOUIN|    74           0.00347       -0.35417       -0.43750        0.00000
 BRILLOUIN|    75           0.00347       -0.35417       -0.39583        0.00000
 BRILLOUIN|    76           0.00347       -0.35417       -0.35417        0.00000
 BRILLOUIN|    77           0.00347       -0.35417       -0.31250        0.00000
 BRILLOUIN|    78           0.00347       -0.35417       -0.27083        0.00000
 BRILLOUIN|    79           0.00347       -0.35417       -0.22917        0.00000
 BRILLOUIN|    80           0.00347       -0.35417       -0.18750        0.00000
 BRILLOUIN|    81           0.00347       -0.35417       -0.14583        0.00000
 BRILLOUIN|    82           0.00347       -0.35417       -0.10417        0.00000
 BRILLOUIN|    83           0.00347       -0.35417       -0.06250        0.00000
 BRILLOUIN|    84           0.00347       -0.35417       -0.02083        0.00000
 BRILLOUIN|    85           0.00347       -0.35417        0.02083        0.00000
 BRILLOUIN|    86           0.00347       -0.35417        0.06250        0.00000
 BRILLOUIN|    87           0.00347       -0.35417        0.10417        0.00000
 BRILLOUIN|    88           0.00347       -0.35417        0.14583        0.00000
 BRILLOUIN|    89           0.00347       -0.35417        0.18750        0.00000
 BRILLOUIN|    90           0.00347       -0.35417        0.22917        0.00000
 BRILLOUIN|    91           0.00347       -0.35417        0.27083        0.00000
 BRILLOUIN|    92           0.00347       -0.35417        0.31250        0.00000
 BRILLOUIN|    93           0.00347       -0.35417        0.35417        0.00000
 BRILLOUIN|    94           0.00347       -0.35417        0.39583        0.00000
 BRILLOUIN|    95           0.00347       -0.35417        0.43750        0.00000
 BRILLOUIN|    96           0.00347       -0.35417        0.47917        0.00000
 BRILLOUIN|    97           0.00347       -0.31250       -0.47917        0.00000
 BRILLOUIN|    98           0.00347       -0.31250       -0.43750        0.00000
 BRILLOUIN|    99           0.00347       -0.31250       -0.39583        0.00000
 BRILLOUIN|   100           0.00347       -0.31250       -0.35417        0.00000
 BRILLOUIN|   101           0.00347       -0.31250       -0.31250        0.00000
 BRILLOUIN|   102           0.00347       -0.31250       -0.27083        0.00000
 BRILLOUIN|   103           0.00347       -0.31250       -0.22917        0.00000
 BRILLOUIN|   104           0.00347       -0.31250       -0.18750        0.00000
 BRILLOUIN|   105           0.00347       -0.31250       -0.14583        0.00000
 BRILLOUIN|   106           0.00347       -0.31250       -0.10417        0.00000
 BRILLOUIN|   107           0.00347       -0.31250       -0.06250        0.00000
 BRILLOUIN|   108           0.00347       -0.31250       -0.02083        0.00000
 BRILLOUIN|   109           0.00347       -0.31250        0.02083        0.00000
 BRILLOUIN|   110           0.00347       -0.31250        0.06250        0.00000
 BRILLOUIN|   111           0.00347       -0.31250        0.10417        0.00000
 BRILLOUIN|   112           0.00347       -0.31250        0.14583        0.00000
 BRILLOUIN|   113           0.00347       -0.31250        0.18750        0.00000
 BRILLOUIN|   114           0.00347       -0.31250        0.22917        0.00000
 BRILLOUIN|   115           0.00347       -0.31250        0.27083        0.00000
 BRILLOUIN|   116           0.00347       -0.31250        0.31250        0.00000
 BRILLOUIN|   117           0.00347       -0.31250        0.35417        0.00000
 BRILLOUIN|   118           0.00347       -0.31250        0.39583        0.00000
 BRILLOUIN|   119           0.00347       -0.31250        0.43750        0.00000
 BRILLOUIN|   120           0.00347       -0.31250        0.47917        0.00000
 BRILLOUIN|   121           0.00347       -0.27083       -0.47917        0.00000
 BRILLOUIN|   122           0.00347       -0.27083       -0.43750        0.00000
 BRILLOUIN|   123           0.00347       -0.27083       -0.39583        0.00000
 BRILLOUIN|   124           0.00347       -0.27083       -0.35417        0.00000
 BRILLOUIN|   125           0.00347       -0.27083       -0.31250        0.00000
 BRILLOUIN|   126           0.00347       -0.27083       -0.27083        0.00000
 BRILLOUIN|   127           0.00347       -0.27083       -0.22917        0.00000
 BRILLOUIN|   128           0.00347       -0.27083       -0.18750        0.00000
 BRILLOUIN|   129           0.00347       -0.27083       -0.14583        0.00000
 BRILLOUIN|   130           0.00347       -0.27083       -0.10417        0.00000
 BRILLOUIN|   131           0.00347       -0.27083       -0.06250        0.00000
 BRILLOUIN|   132           0.00347       -0.27083       -0.02083        0.00000
 BRILLOUIN|   133           0.00347       -0.27083        0.02083        0.00000
 BRILLOUIN|   134           0.00347       -0.27083        0.06250        0.00000
 BRILLOUIN|   135           0.00347       -0.27083        0.10417        0.00000
 BRILLOUIN|   136           0.00347       -0.27083        0.14583        0.00000
 BRILLOUIN|   137           0.00347       -0.27083        0.18750        0.00000
 BRILLOUIN|   138           0.00347       -0.27083        0.22917        0.00000
 BRILLOUIN|   139           0.00347       -0.27083        0.27083        0.00000
 BRILLOUIN|   140           0.00347       -0.27083        0.31250        0.00000
 BRILLOUIN|   141           0.00347       -0.27083        0.35417        0.00000
 BRILLOUIN|   142           0.00347       -0.27083        0.39583        0.00000
 BRILLOUIN|   143           0.00347       -0.27083        0.43750        0.00000
 BRILLOUIN|   144           0.00347       -0.27083        0.47917        0.00000
 BRILLOUIN|   145           0.00347       -0.22917       -0.47917        0.00000
 BRILLOUIN|   146           0.00347       -0.22917       -0.43750        0.00000
 BRILLOUIN|   147           0.00347       -0.22917       -0.39583        0.00000
 BRILLOUIN|   148           0.00347       -0.22917       -0.35417        0.00000
 BRILLOUIN|   149           0.00347       -0.22917       -0.31250        0.00000
 BRILLOUIN|   150           0.00347       -0.22917       -0.27083        0.00000
 BRILLOUIN|   151           0.00347       -0.22917       -0.22917        0.00000
 BRILLOUIN|   152           0.00347       -0.22917       -0.18750        0.00000
 BRILLOUIN|   153           0.00347       -0.22917       -0.14583        0.00000
 BRILLOUIN|   154           0.00347       -0.22917       -0.10417        0.00000
 BRILLOUIN|   155           0.00347       -0.22917       -0.06250        0.00000
 BRILLOUIN|   156           0.00347       -0.22917       -0.02083        0.00000
 BRILLOUIN|   157           0.00347       -0.22917        0.02083        0.00000
 BRILLOUIN|   158           0.00347       -0.22917        0.06250        0.00000
 BRILLOUIN|   159           0.00347       -0.22917        0.10417        0.00000
 BRILLOUIN|   160           0.00347       -0.22917        0.14583        0.00000
 BRILLOUIN|   161           0.00347       -0.22917        0.18750        0.00000
 BRILLOUIN|   162           0.00347       -0.22917        0.22917        0.00000
 BRILLOUIN|   163           0.00347       -0.22917        0.27083        0.00000
 BRILLOUIN|   164           0.00347       -0.22917        0.31250        0.00000
 BRILLOUIN|   165           0.00347       -0.22917        0.35417        0.00000
 BRILLOUIN|   166           0.00347       -0.22917        0.39583        0.00000
 BRILLOUIN|   167           0.00347       -0.22917        0.43750        0.00000
 BRILLOUIN|   168           0.00347       -0.22917        0.47917        0.00000
 BRILLOUIN|   169           0.00347       -0.18750       -0.47917        0.00000
 BRILLOUIN|   170           0.00347       -0.18750       -0.43750        0.00000
 BRILLOUIN|   171           0.00347       -0.18750       -0.39583        0.00000
 BRILLOUIN|   172           0.00347       -0.18750       -0.35417        0.00000
 BRILLOUIN|   173           0.00347       -0.18750       -0.31250        0.00000
 BRILLOUIN|   174           0.00347       -0.18750       -0.27083        0.00000
 BRILLOUIN|   175           0.00347       -0.18750       -0.22917        0.00000
 BRILLOUIN|   176           0.00347       -0.18750       -0.18750        0.00000
 BRILLOUIN|   177           0.00347       -0.18750       -0.14583        0.00000
 BRILLOUIN|   178           0.00347       -0.18750       -0.10417        0.00000
 BRILLOUIN|   179           0.00347       -0.18750       -0.06250        0.00000
 BRILLOUIN|   180           0.00347       -0.18750       -0.02083        0.00000
 BRILLOUIN|   181           0.00347       -0.18750        0.02083        0.00000
 BRILLOUIN|   182           0.00347       -0.18750        0.06250        0.00000
 BRILLOUIN|   183           0.00347       -0.18750        0.10417        0.00000
 BRILLOUIN|   184           0.00347       -0.18750        0.14583        0.00000
 BRILLOUIN|   185           0.00347       -0.18750        0.18750        0.00000
 BRILLOUIN|   186           0.00347       -0.18750        0.22917        0.00000
 BRILLOUIN|   187           0.00347       -0.18750        0.27083        0.00000
 BRILLOUIN|   188           0.00347       -0.18750        0.31250        0.00000
 BRILLOUIN|   189           0.00347       -0.18750        0.35417        0.00000
 BRILLOUIN|   190           0.00347       -0.18750        0.39583        0.00000
 BRILLOUIN|   191           0.00347       -0.18750        0.43750        0.00000
 BRILLOUIN|   192           0.00347       -0.18750        0.47917        0.00000
 BRILLOUIN|   193           0.00347       -0.14583       -0.47917        0.00000
 BRILLOUIN|   194           0.00347       -0.14583       -0.43750        0.00000
 BRILLOUIN|   195           0.00347       -0.14583       -0.39583        0.00000
 BRILLOUIN|   196           0.00347       -0.14583       -0.35417        0.00000
 BRILLOUIN|   197           0.00347       -0.14583       -0.31250        0.00000
 BRILLOUIN|   198           0.00347       -0.14583       -0.27083        0.00000
 BRILLOUIN|   199           0.00347       -0.14583       -0.22917        0.00000
 BRILLOUIN|   200           0.00347       -0.14583       -0.18750        0.00000
 BRILLOUIN|   201           0.00347       -0.14583       -0.14583        0.00000
 BRILLOUIN|   202           0.00347       -0.14583       -0.10417        0.00000
 BRILLOUIN|   203           0.00347       -0.14583       -0.06250        0.00000
 BRILLOUIN|   204           0.00347       -0.14583       -0.02083        0.00000
 BRILLOUIN|   205           0.00347       -0.14583        0.02083        0.00000
 BRILLOUIN|   206           0.00347       -0.14583        0.06250        0.00000
 BRILLOUIN|   207           0.00347       -0.14583        0.10417        0.00000
 BRILLOUIN|   208           0.00347       -0.14583        0.14583        0.00000
 BRILLOUIN|   209           0.00347       -0.14583        0.18750        0.00000
 BRILLOUIN|   210           0.00347       -0.14583        0.22917        0.00000
 BRILLOUIN|   211           0.00347       -0.14583        0.27083        0.00000
 BRILLOUIN|   212           0.00347       -0.14583        0.31250        0.00000
 BRILLOUIN|   213           0.00347       -0.14583        0.35417        0.00000
 BRILLOUIN|   214           0.00347       -0.14583        0.39583        0.00000
 BRILLOUIN|   215           0.00347       -0.14583        0.43750        0.00000
 BRILLOUIN|   216           0.00347       -0.14583        0.47917        0.00000
 BRILLOUIN|   217           0.00347       -0.10417       -0.47917        0.00000
 BRILLOUIN|   218           0.00347       -0.10417       -0.43750        0.00000
 BRILLOUIN|   219           0.00347       -0.10417       -0.39583        0.00000
 BRILLOUIN|   220           0.00347       -0.10417       -0.35417        0.00000
 BRILLOUIN|   221           0.00347       -0.10417       -0.31250        0.00000
 BRILLOUIN|   222           0.00347       -0.10417       -0.27083        0.00000
 BRILLOUIN|   223           0.00347       -0.10417       -0.22917        0.00000
 BRILLOUIN|   224           0.00347       -0.10417       -0.18750        0.00000
 BRILLOUIN|   225           0.00347       -0.10417       -0.14583        0.00000
 BRILLOUIN|   226           0.00347       -0.10417       -0.10417        0.00000
 BRILLOUIN|   227           0.00347       -0.10417       -0.06250        0.00000
 BRILLOUIN|   228           0.00347       -0.10417       -0.02083        0.00000
 BRILLOUIN|   229           0.00347       -0.10417        0.02083        0.00000
 BRILLOUIN|   230           0.00347       -0.10417        0.06250        0.00000
 BRILLOUIN|   231           0.00347       -0.10417        0.10417        0.00000
 BRILLOUIN|   232           0.00347       -0.10417        0.14583        0.00000
 BRILLOUIN|   233           0.00347       -0.10417        0.18750        0.00000
 BRILLOUIN|   234           0.00347       -0.10417        0.22917        0.00000
 BRILLOUIN|   235           0.00347       -0.10417        0.27083        0.00000
 BRILLOUIN|   236           0.00347       -0.10417        0.31250        0.00000
 BRILLOUIN|   237           0.00347       -0.10417        0.35417        0.00000
 BRILLOUIN|   238           0.00347       -0.10417        0.39583        0.00000
 BRILLOUIN|   239           0.00347       -0.10417        0.43750        0.00000
 BRILLOUIN|   240           0.00347       -0.10417        0.47917        0.00000
 BRILLOUIN|   241           0.00347       -0.06250       -0.47917        0.00000
 BRILLOUIN|   242           0.00347       -0.06250       -0.43750        0.00000
 BRILLOUIN|   243           0.00347       -0.06250       -0.39583        0.00000
 BRILLOUIN|   244           0.00347       -0.06250       -0.35417        0.00000
 BRILLOUIN|   245           0.00347       -0.06250       -0.31250        0.00000
 BRILLOUIN|   246           0.00347       -0.06250       -0.27083        0.00000
 BRILLOUIN|   247           0.00347       -0.06250       -0.22917        0.00000
 BRILLOUIN|   248           0.00347       -0.06250       -0.18750        0.00000
 BRILLOUIN|   249           0.00347       -0.06250       -0.14583        0.00000
 BRILLOUIN|   250           0.00347       -0.06250       -0.10417        0.00000
 BRILLOUIN|   251           0.00347       -0.06250       -0.06250        0.00000
 BRILLOUIN|   252           0.00347       -0.06250       -0.02083        0.00000
 BRILLOUIN|   253           0.00347       -0.06250        0.02083        0.00000
 BRILLOUIN|   254           0.00347       -0.06250        0.06250        0.00000
 BRILLOUIN|   255           0.00347       -0.06250        0.10417        0.00000
 BRILLOUIN|   256           0.00347       -0.06250        0.14583        0.00000
 BRILLOUIN|   257           0.00347       -0.06250        0.18750        0.00000
 BRILLOUIN|   258           0.00347       -0.06250        0.22917        0.00000
 BRILLOUIN|   259           0.00347       -0.06250        0.27083        0.00000
 BRILLOUIN|   260           0.00347       -0.06250        0.31250        0.00000
 BRILLOUIN|   261           0.00347       -0.06250        0.35417        0.00000
 BRILLOUIN|   262           0.00347       -0.06250        0.39583        0.00000
 BRILLOUIN|   263           0.00347       -0.06250        0.43750        0.00000
 BRILLOUIN|   264           0.00347       -0.06250        0.47917        0.00000
 BRILLOUIN|   265           0.00347       -0.02083       -0.47917        0.00000
 BRILLOUIN|   266           0.00347       -0.02083       -0.43750        0.00000
 BRILLOUIN|   267           0.00347       -0.02083       -0.39583        0.00000
 BRILLOUIN|   268           0.00347       -0.02083       -0.35417        0.00000
 BRILLOUIN|   269           0.00347       -0.02083       -0.31250        0.00000
 BRILLOUIN|   270           0.00347       -0.02083       -0.27083        0.00000
 BRILLOUIN|   271           0.00347       -0.02083       -0.22917        0.00000
 BRILLOUIN|   272           0.00347       -0.02083       -0.18750        0.00000
 BRILLOUIN|   273           0.00347       -0.02083       -0.14583        0.00000
 BRILLOUIN|   274           0.00347       -0.02083       -0.10417        0.00000
 BRILLOUIN|   275           0.00347       -0.02083       -0.06250        0.00000
 BRILLOUIN|   276           0.00347       -0.02083       -0.02083        0.00000
 BRILLOUIN|   277           0.00347       -0.02083        0.02083        0.00000
 BRILLOUIN|   278           0.00347       -0.02083        0.06250        0.00000
 BRILLOUIN|   279           0.00347       -0.02083        0.10417        0.00000
 BRILLOUIN|   280           0.00347       -0.02083        0.14583        0.00000
 BRILLOUIN|   281           0.00347       -0.02083        0.18750        0.00000
 BRILLOUIN|   282           0.00347       -0.02083        0.22917        0.00000
 BRILLOUIN|   283           0.00347       -0.02083        0.27083        0.00000
 BRILLOUIN|   284           0.00347       -0.02083        0.31250        0.00000
 BRILLOUIN|   285           0.00347       -0.02083        0.35417        0.00000
 BRILLOUIN|   286           0.00347       -0.02083        0.39583        0.00000
 BRILLOUIN|   287           0.00347       -0.02083        0.43750        0.00000
 BRILLOUIN|   288           0.00347       -0.02083        0.47917        0.00000
 *******************************************************************************

 *******************************************************************************
 *******************************************************************************
 **                                                                           **
 **     #####                         ##              ##                      **
 **    ##   ##            ##          ##              ##                      **
 **   ##     ##                       ##            ######                    **
 **   ##     ##  ##   ##  ##   #####  ##  ##   ####   ##    #####    #####    **
 **   ##     ##  ##   ##  ##  ##      ## ##   ##      ##   ##   ##  ##   ##   **
 **   ##  ## ##  ##   ##  ##  ##      ####     ###    ##   ######   ######    **
 **    ##  ###   ##   ##  ##  ##      ## ##      ##   ##   ##       ##        **
 **     #######   #####   ##   #####  ##  ##  ####    ##    #####   ##        **
 **           ##                                                    ##        **
 **                                                                           **
 **                                                ... make the atoms dance   **
 **                                                                           **
 **            Copyright (C) by CP2K developers group (2000-2025)             **
 **                      J. Chem. Phys. 152, 194103 (2020)                    **
 **                                                                           **
 *******************************************************************************

 DFT| Spin restricted Kohn-Sham (RKS) calculation                            RKS
 DFT| Multiplicity                                                             1
 DFT| Number of spin states                                                    1
 DFT| Charge                                                                   0
 DFT| Self-interaction correction (SIC)                                       NO
 DFT| Cutoffs: density                                              1.000000E-10
 DFT|          gradient                                             1.000000E-10
 DFT|          tau                                                  1.000000E-10
 DFT|          cutoff_smoothing_range                               0.000000E+00
 DFT| XC density smoothing                                                  NONE
 DFT| XC derivatives                                                          PW

 FUNCTIONAL| PBE:
 FUNCTIONAL| J.P.Perdew, K.Burke, M.Ernzerhof, Phys. Rev. Letter, vol. 77, n 18,
 FUNCTIONAL|  pp. 3865-3868, (1996) {spin unpolarized}                          


 QS| Method:                                                                 GPW
 QS| Density plane wave grid type                        NON-SPHERICAL FULLSPACE
 QS| Number of grid levels:                                                    4
 QS| Density cutoff [a.u.]:                                                500.0
 QS| Multi grid cutoff [a.u.]: 1) grid level                               500.0
 QS|                           2) grid level                               166.7
 QS|                           3) grid level                                55.6
 QS|                           4) grid level                                18.5
 QS| Grid level progression factor:                                          3.0
 QS| Relative density cutoff [a.u.]:                                        50.0
 QS| Interaction thresholds: eps_pgf_orb:                                1.0E-12
 QS|                         eps_filter_matrix:                          0.0E+00
 QS|                         eps_core_charge:                            1.0E-14
 QS|                         eps_rho_gspace:                             1.0E-12
 QS|                         eps_rho_rspace:                             1.0E-12
 QS|                         eps_gvg_rspace:                             1.0E-06
 QS|                         eps_ppl:                                    1.0E-02
 QS|                         eps_ppnl:                                   1.0E-08


 ATOMIC KIND INFORMATION

  1. Atomic kind: B                                     Number of atoms:       1

     Orbital Basis Set                                 aug-SZV-MOLOPT-GTH-tier-2

       Number of orbital shell sets:                                           1
       Number of orbital shells:                                               5
       Number of primitive Cartesian functions:                                5
       Number of Cartesian basis functions:                                   14
       Number of spherical basis functions:                                   13
       Norm type:                                                              2

       Normalised Cartesian orbitals:

                        Set   Shell   Orbital            Exponent    Coefficient

                          1       1    2s                0.070000       0.000000
                                                         0.101655      -0.057697
                                                         0.329920      -0.219689
                                                         0.915484       0.050494
                                                         3.053444       0.252403

                          1       2    3s                0.070000       0.096981
                                                         0.101655      -0.000080
                                                         0.329920       0.000294
                                                         0.915484       0.000161
                                                         3.053444       0.000000

                          1       3    3px               0.070000       0.000000
                                                         0.101655      -0.024010
                                                         0.329920      -0.182602
                                                         0.915484      -0.388731
                                                         3.053444      -0.570047
                          1       3    3py               0.070000       0.000000
                                                         0.101655      -0.024010
                                                         0.329920      -0.182602
                                                         0.915484      -0.388731
                                                         3.053444      -0.570047
                          1       3    3pz               0.070000       0.000000
                                                         0.101655      -0.024010
                                                         0.329920      -0.182602
                                                         0.915484      -0.388731
                                                         3.053444      -0.570047

                          1       4    4px               0.070000       0.057413
                                                         0.101655      -0.011874
                                                         0.329920       0.011088
                                                         0.915484       0.026429
                                                         3.053444       0.000000
                          1       4    4py               0.070000       0.057413
                                                         0.101655      -0.011874
                                                         0.329920       0.011088
                                                         0.915484       0.026429
                                                         3.053444       0.000000
                          1       4    4pz               0.070000       0.057413
                                                         0.101655      -0.011874
                                                         0.329920       0.011088
                                                         0.915484       0.026429
                                                         3.053444       0.000000

                          1       5    4dx2              0.070000       0.000071
                                                         0.101655       0.000150
                                                         0.329920       0.236125
                                                         0.915484      -0.007588
                                                         3.053444       0.000000
                          1       5    4dxy              0.070000       0.000123
                                                         0.101655       0.000260
                                                         0.329920       0.408980
                                                         0.915484      -0.013142
                                                         3.053444       0.000000
                          1       5    4dxz              0.070000       0.000123
                                                         0.101655       0.000260
                                                         0.329920       0.408980
                                                         0.915484      -0.013142
                                                         3.053444       0.000000
                          1       5    4dy2              0.070000       0.000071
                                                         0.101655       0.000150
                                                         0.329920       0.236125
                                                         0.915484      -0.007588
                                                         3.053444       0.000000
                          1       5    4dyz              0.070000       0.000123
                                                         0.101655       0.000260
                                                         0.329920       0.408980
                                                         0.915484      -0.013142
                                                         3.053444       0.000000
                          1       5    4dz2              0.070000       0.000071
                                                         0.101655       0.000150
                                                         0.329920       0.236125
                                                         0.915484      -0.007588
                                                         3.053444       0.000000

     RI Auxiliary Basis Set             RI_aug-SZV-MOLOPT-GTH-tier-2_N_RI_014_s_

       Number of orbital shell sets:                                           6
       Number of orbital shells:                                               6
       Number of primitive Cartesian functions:                                6
       Number of Cartesian basis functions:                                   15
       Number of spherical basis functions:                                   14
       Norm type:                                                              2

       Normalised Cartesian orbitals:

                        Set   Shell   Orbital            Exponent    Coefficient

                          1       1    1s                0.176183       0.193813

                          2       1    4px               0.190207       0.179049
                          2       1    4py               0.190207       0.179049
                          2       1    4pz               0.190207       0.179049

                          3       1    2s                0.494536       0.420299

                          4       1    6dx2              0.503217       0.494859
                          4       1    6dxy              0.503217       0.857120
                          4       1    6dxz              0.503217       0.857120
                          4       1    6dy2              0.503217       0.494859
                          4       1    6dyz              0.503217       0.857120
                          4       1    6dz2              0.503217       0.494859

                          5       1    5px               0.738822       0.976371
                          5       1    5py               0.738822       0.976371
                          5       1    5pz               0.738822       0.976371

                          6       1    3s                3.130453       1.677318

       Atomic covalent radius [Angstrom]:                                  0.820

       Atomic van der Waals radius [Angstrom]:                             1.920

     GTH Potential information for                                    GTH-PBE-q3

       Description:                       Goedecker-Teter-Hutter pseudopotential
                                           Goedecker et al., PRB 54, 1703 (1996)
                                          Hartwigsen et al., PRB 58, 3641 (1998)
                                                      Krack, TCA 114, 145 (2005)

       Gaussian exponent of the core charge distribution:               2.848129
       Electronic configuration (s p d ...):                               2   1

       Parameters of the local part of the GTH pseudopotential:

                          rloc        C1          C2          C3          C4
                        0.418991   -5.859462    0.903756

       Parameters of the non-local part of the GTH (SOC) pseudopotential:

                   l      r(l)      h(i,j,l)
                                    k(i,j,l)
                   0    0.371320    6.297280
                   1    0.364563    0.000000
                                    0.000855

  2. Atomic kind: N                                     Number of atoms:       1

     Orbital Basis Set                                 aug-SZV-MOLOPT-GTH-tier-2

       Number of orbital shell sets:                                           1
       Number of orbital shells:                                               5
       Number of primitive Cartesian functions:                                6
       Number of Cartesian basis functions:                                   14
       Number of spherical basis functions:                                   13
       Norm type:                                                              2

       Normalised Cartesian orbitals:

                        Set   Shell   Orbital            Exponent    Coefficient

                          1       1    2s                0.070000       0.000000
                                                         0.112012      -0.019197
                                                         0.333802      -0.182244
                                                         0.888575      -0.289383
                                                         2.542637       0.139177
                                                         7.341988       0.360561

                          1       2    3s                0.070000       0.092556
                                                         0.112012      -0.004523
                                                         0.333802       0.017208
                                                         0.888575       0.059493
                                                         2.542637       0.000000
                                                         7.341988       0.000000

                          1       3    3px               0.070000       0.000000
                                                         0.112012      -0.013986
                                                         0.333802      -0.144894
                                                         0.888575      -0.501079
                                                         2.542637      -0.973969
                                                         7.341988      -1.188719
                          1       3    3py               0.070000       0.000000
                                                         0.112012      -0.013986
                                                         0.333802      -0.144894
                                                         0.888575      -0.501079
                                                         2.542637      -0.973969
                                                         7.341988      -1.188719
                          1       3    3pz               0.070000       0.000000
                                                         0.112012      -0.013986
                                                         0.333802      -0.144894
                                                         0.888575      -0.501079
                                                         2.542637      -0.973969
                                                         7.341988      -1.188719

                          1       4    4px               0.070000       0.019777
                                                         0.112012       0.010521
                                                         0.333802       0.223757
                                                         0.888575       0.038703
                                                         2.542637       0.000000
                                                         7.341988       0.000000
                          1       4    4py               0.070000       0.019777
                                                         0.112012       0.010521
                                                         0.333802       0.223757
                                                         0.888575       0.038703
                                                         2.542637       0.000000
                                                         7.341988       0.000000
                          1       4    4pz               0.070000       0.019777
                                                         0.112012       0.010521
                                                         0.333802       0.223757
                                                         0.888575       0.038703
                                                         2.542637       0.000000
                                                         7.341988       0.000000

                          1       5    4dx2              0.070000       0.012523
                                                         0.112012      -0.007680
                                                         0.333802       0.106561
                                                         0.888575       0.393255
                                                         2.542637       0.000000
                                                         7.341988       0.000000
                          1       5    4dxy              0.070000       0.021691
                                                         0.112012      -0.013303
                                                         0.333802       0.184569
                                                         0.888575       0.681137
                                                         2.542637       0.000000
                                                         7.341988       0.000000
                          1       5    4dxz              0.070000       0.021691
                                                         0.112012      -0.013303
                                                         0.333802       0.184569
                                                         0.888575       0.681137
                                                         2.542637       0.000000
                                                         7.341988       0.000000
                          1       5    4dy2              0.070000       0.012523
                                                         0.112012      -0.007680
                                                         0.333802       0.106561
                                                         0.888575       0.393255
                                                         2.542637       0.000000
                                                         7.341988       0.000000
                          1       5    4dyz              0.070000       0.021691
                                                         0.112012      -0.013303
                                                         0.333802       0.184569
                                                         0.888575       0.681137
                                                         2.542637       0.000000
                                                         7.341988       0.000000
                          1       5    4dz2              0.070000       0.012523
                                                         0.112012      -0.007680
                                                         0.333802       0.106561
                                                         0.888575       0.393255
                                                         2.542637       0.000000
                                                         7.341988       0.000000

     RI Auxiliary Basis Set             RI_aug-SZV-MOLOPT-GTH-tier-2_N_RI_033_s_

       Number of orbital shell sets:                                          13
       Number of orbital shells:                                              13
       Number of primitive Cartesian functions:                               13
       Number of Cartesian basis functions:                                   38
       Number of spherical basis functions:                                   33
       Norm type:                                                              2

       Normalised Cartesian orbitals:

                        Set   Shell   Orbital            Exponent    Coefficient

                          1       1    8px               0.128755       0.109937
                          1       1    8py               0.128755       0.109937
                          1       1    8pz               0.128755       0.109937

                          2       1    1s                0.177993       0.195305

                          3       1    2s                0.352789       0.326247

                          4       1   11dx2              0.604085       0.681289
                          4       1   11dxy              0.604085       1.180027
                          4       1   11dxz              0.604085       1.180027
                          4       1   11dy2              0.604085       0.681289
                          4       1   11dyz              0.604085       1.180027
                          4       1   11dz2              0.604085       0.681289

                          5       1    9px               0.668095       0.860970
                          5       1    9py               0.668095       0.860970
                          5       1    9pz               0.668095       0.860970

                          6       1    3s                0.722621       0.558590

                          7       1   13fx3              1.003298       1.483105
                          7       1   13fx2y             1.003298       3.316324
                          7       1   13fx2z             1.003298       3.316324
                          7       1   13fxy2             1.003298       3.316324
                          7       1   13fxyz             1.003298       5.744042
                          7       1   13fxz2             1.003298       3.316324
                          7       1   13fy3              1.003298       1.483105
                          7       1   13fy2z             1.003298       3.316324
                          7       1   13fyz2             1.003298       3.316324
                          7       1   13fz3              1.003298       1.483105

                          8       1    4s                1.475569       0.954179

                          9       1   10px               1.864193       3.104944
                          9       1   10py               1.864193       3.104944
                          9       1   10pz               1.864193       3.104944

                         10       1    5s                2.970298       1.612539

                         11       1   12dx2              3.000284      11.257544
                         11       1   12dxy              3.000284      19.498638
                         11       1   12dxz              3.000284      19.498638
                         11       1   12dy2              3.000284      11.257544
                         11       1   12dyz              3.000284      19.498638
                         11       1   12dz2              3.000284      11.257544

                         12       1    6s                6.032716       2.743435

                         13       1    7s               12.241787       4.664378

       Atomic covalent radius [Angstrom]:                                  0.750

       Atomic van der Waals radius [Angstrom]:                             1.550

     GTH Potential information for                                    GTH-PBE-q5

       Description:                       Goedecker-Teter-Hutter pseudopotential
                                           Goedecker et al., PRB 54, 1703 (1996)
                                          Hartwigsen et al., PRB 58, 3641 (1998)
                                                      Krack, TCA 114, 145 (2005)

       Gaussian exponent of the core charge distribution:               6.208322
       Electronic configuration (s p d ...):                               2   3

       Parameters of the local part of the GTH pseudopotential:

                          rloc        C1          C2          C3          C4
                        0.283791  -12.415226    1.868096

       Parameters of the non-local part of the GTH (SOC) pseudopotential:

                   l      r(l)      h(i,j,l)
                                    k(i,j,l)
                   0    0.255405   13.630263
                   1    0.245495    0.000000
                                    0.004148


 MOLECULE KIND INFORMATION


 All atoms are their own molecule, skipping detailed information


 TOTAL NUMBERS AND MAXIMUM NUMBERS

  Total number of            - Atomic kinds:                                   2
                             - Atoms:                                          2
                             - Shell sets:                                     2
                             - Shells:                                        10
                             - Primitive Cartesian functions:                 11
                             - Cartesian basis functions:                     28
                             - Spherical basis functions:                     26

  Maximum angular momentum of- Orbital basis functions:                        2
                             - Local part of the GTH pseudopotential:          2
                             - Non-local part of the GTH pseudopotential:      1


 MODULE QUICKSTEP: ATOMIC COORDINATES IN ANGSTROM

   Atom Kind Element         X             Y             Z       Z(eff)     Mass
      1    1 B     5      0.000000      1.449303      7.500000   3.0000  10.8110
      2    2 N     7      1.255134      0.724652      7.500000   5.0000  14.0067



 SCF PARAMETERS         Density guess:                                    ATOMIC
                        --------------------------------------------------------
                        max_scf:                                             500
                        max_scf_history:                                       0
                        max_diis:                                              4
                        --------------------------------------------------------
                        eps_scf:                                        1.00E-09
                        eps_scf_history:                                0.00E+00
                        eps_diis:                                       1.00E-01
                        eps_eigval:                                     1.00E-05
                        --------------------------------------------------------
                        level_shift [a.u.]:                             0.000000
                        added MOs                                        22    0
                        --------------------------------------------------------
                        Mixing method:                            BROYDEN_MIXING
                                                charge density mixing in g-space
                        --------------------------------------------------------
                        No outer SCF

 PW_GRID| Information for grid number                                          1
 PW_GRID| Grid distributed over                                   128 processors
 PW_GRID| Real space group dimensions                                     8   16
 PW_GRID| the grid is blocked:                                               YES
 PW_GRID| Cutoff [a.u.]                                                    500.0
 PW_GRID| spherical cutoff:                                                   NO
 PW_GRID|   Bounds   1            -24      23                Points:          48
 PW_GRID|   Bounds   2            -24      23                Points:          48
 PW_GRID|   Bounds   3           -144     143                Points:         288
 PW_GRID| Volume element (a.u.^3)  0.8323E-03     Volume (a.u.^3)       552.2884
 PW_GRID| Grid span                                                    FULLSPACE
 PW_GRID|   Distribution                         Average         Max         Min
 PW_GRID|   G-Vectors                             5184.0        5184        5184
 PW_GRID|   G-Rays                                 108.0         108         108
 PW_GRID|   Real Space Points                     5184.0        5184        5184

 PW_GRID| Information for grid number                                          2
 PW_GRID| Number of the reference grid                                         1
 PW_GRID| Grid distributed over                                   128 processors
 PW_GRID| Real space group dimensions                                     8   16
 PW_GRID| the grid is blocked:                                                NO
 PW_GRID| Cutoff [a.u.]                                                    166.7
 PW_GRID| spherical cutoff:                                                   NO
 PW_GRID|   Bounds   1            -13      13                Points:          27
 PW_GRID|   Bounds   2            -13      13                Points:          27
 PW_GRID|   Bounds   3            -90      89                Points:         180
 PW_GRID| Volume element (a.u.^3)  0.4209E-02     Volume (a.u.^3)       552.2884
 PW_GRID| Grid span                                                    FULLSPACE
 PW_GRID|   Distribution                         Average         Max         Min
 PW_GRID|   G-Vectors                             1025.2        2916           0
 PW_GRID|   G-Rays                                  38.0         108           0
 PW_GRID|   Real Space Points                     1025.2        1440         540

 PW_GRID| Information for grid number                                          3
 PW_GRID| Number of the reference grid                                         1
 PW_GRID| Grid distributed over                                   128 processors
 PW_GRID| Real space group dimensions                                     8   16
 PW_GRID| the grid is blocked:                                                NO
 PW_GRID| Cutoff [a.u.]                                                     55.6
 PW_GRID| spherical cutoff:                                                   NO
 PW_GRID|   Bounds   1             -7       7                Points:          15
 PW_GRID|   Bounds   2             -7       7                Points:          15
 PW_GRID|   Bounds   3            -48      47                Points:          96
 PW_GRID| Volume element (a.u.^3)  0.2557E-01     Volume (a.u.^3)       552.2884
 PW_GRID| Grid span                                                    FULLSPACE
 PW_GRID|   Distribution                         Average         Max         Min
 PW_GRID|   G-Vectors                              168.8        1620           0
 PW_GRID|   G-Rays                                  11.2         108           0
 PW_GRID|   Real Space Points                      168.8         192           0

 PW_GRID| Information for grid number                                          4
 PW_GRID| Number of the reference grid                                         1
 PW_GRID| Grid distributed over                                   128 processors
 PW_GRID| Real space group dimensions                                     8   16
 PW_GRID| the grid is blocked:                                                NO
 PW_GRID| Cutoff [a.u.]                                                     18.5
 PW_GRID| spherical cutoff:                                                   NO
 PW_GRID|   Bounds   1             -4       4                Points:           9
 PW_GRID|   Bounds   2             -4       4                Points:           9
 PW_GRID|   Bounds   3            -30      29                Points:          60
 PW_GRID| Volume element (a.u.^3)  0.1136         Volume (a.u.^3)       552.2884
 PW_GRID| Grid span                                                    FULLSPACE
 PW_GRID|   Distribution                         Average         Max         Min
 PW_GRID|   G-Vectors                               38.0         810           0
 PW_GRID|   G-Rays                                   4.2          90           0
 PW_GRID|   Real Space Points                       38.0         120           0

 POISSON| Solver                                                        PERIODIC
 POISSON| Periodicity                                                        XYZ

 *** WARNING in pw_env_methods.F:746 :: The selected periodicities in the ***
 *** sections &CELL and &POISSON do not match                             ***


 RS_GRID| Information for grid number                                          1
 RS_GRID|   Bounds   1            -24      23                Points:          48
 RS_GRID|   Bounds   2            -24      23                Points:          48
 RS_GRID|   Bounds   3           -144     143                Points:         288
 RS_GRID| Real space distribution over                                128 groups
 RS_GRID| Real space distribution along direction                              3
 RS_GRID| Border size                                                         54
 RS_GRID|   Distribution                         Average         Max         Min
 RS_GRID|   Planes                                 110.2         111         110

 RS_GRID| Information for grid number                                          2
 RS_GRID|   Bounds   1            -13      13                Points:          27
 RS_GRID|   Bounds   2            -13      13                Points:          27
 RS_GRID|   Bounds   3            -90      89                Points:         180
 RS_GRID| Real space fully replicated
 RS_GRID| Group size                                                           1

 RS_GRID| Information for grid number                                          3
 RS_GRID|   Bounds   1             -7       7                Points:          15
 RS_GRID|   Bounds   2             -7       7                Points:          15
 RS_GRID|   Bounds   3            -48      47                Points:          96
 RS_GRID| Real space fully replicated
 RS_GRID| Group size                                                           1

 RS_GRID| Information for grid number                                          4
 RS_GRID|   Bounds   1             -4       4                Points:           9
 RS_GRID|   Bounds   2             -4       4                Points:           9
 RS_GRID|   Bounds   3            -30      29                Points:          60
 RS_GRID| Real space fully replicated
 RS_GRID| Group size                                                           1

 Extrapolation method: initial_guess

 Atomic guess: The first density matrix is obtained in terms of atomic orbitals
               and electronic configurations assigned to each atomic kind

 Guess for atomic kind: B

 Electronic structure
    Total number of core electrons                                          2.00
    Total number of valence electrons                                       3.00
    Total number of electrons                                               5.00
    Multiplicity                                                   not specified
    S   [  2.00] 2.00
    P      1.00


 *******************************************************************************
                  Iteration          Convergence                     Energy [au]
 *******************************************************************************
                          1        0.318287E-01                  -2.526530290476
                          2        0.130111E-01                  -2.527409258314
                          3        0.362461E-03                  -2.527664151253
                          4        0.212775E-07                  -2.527664329937

 Energy components [Hartree]           Total Energy ::           -2.527664329937
                                        Band Energy ::           -0.774157874948
                                     Kinetic Energy ::            1.432105792828
                                   Potential Energy ::           -3.959770122764
                                      Virial (-V/T) ::            2.764998328054
                                        Core Energy ::           -3.739058608706
                                          XC Energy ::           -0.778578427619
                                     Coulomb Energy ::            1.989972706388
                       Total Pseudopotential Energy ::           -5.202216582334
                       Local Pseudopotential Energy ::           -5.554780274858
                    Nonlocal Pseudopotential Energy ::            0.352563692524
                                        Confinement ::            0.310521808001

 Orbital energies  State     L     Occupation   Energy[a.u.]          Energy[eV]

                       1     0          2.000      -0.330590           -8.995816

                       1     1          1.000      -0.112978           -3.074276


 Total Electron Density at R=0:                                         0.000151

 Guess for atomic kind: N

 Electronic structure
    Total number of core electrons                                          2.00
    Total number of valence electrons                                       5.00
    Total number of electrons                                               7.00
    Multiplicity                                                   not specified
    S   [  2.00] 2.00
    P      3.00


 *******************************************************************************
                  Iteration          Convergence                     Energy [au]
 *******************************************************************************
                          1        0.279825                      -9.519702036083
                          2        0.203084                      -9.530037546193
                          3        0.554394E-03                  -9.542302744773
                          4        0.528449E-04                  -9.542302841836
                          5        0.297177E-04                  -9.542302842361
                          6        0.208869E-04                  -9.542302842484
                          7        0.550195E-07                  -9.542302842603

 Energy components [Hartree]           Total Energy ::           -9.542302842603
                                        Band Energy ::           -2.003604362155
                                     Kinetic Energy ::            6.761024631072
                                   Potential Energy ::          -16.303327473676
                                      Virial (-V/T) ::            2.411369335758
                                        Core Energy ::          -15.577117993880
                                          XC Energy ::           -2.176535633023
                                     Coulomb Energy ::            8.211350784299
                       Total Pseudopotential Energy ::          -22.374806510451
                       Local Pseudopotential Energy ::          -23.291549762728
                    Nonlocal Pseudopotential Energy ::            0.916743252277
                                        Confinement ::            0.366638854993

 Orbital energies  State     L     Occupation   Energy[a.u.]          Energy[eV]

                       1     0          2.000      -0.653124          -17.772414

                       1     1          3.000      -0.232452           -6.325340


 Total Electron Density at R=0:                                         0.000012
 Re-scaling the density matrix to get the right number of electrons
                  # Electrons              Trace(P)               Scaling factor
                            8                 8.000                        1.000

 Number of electrons:                                                          8
 Number of occupied orbitals:                                                  4
 Number of molecular orbitals:                                                26

 Number of orbital functions:                                                 26
 Number of independent orbital functions:                                     26


 SCF WAVEFUNCTION OPTIMIZATION

  Step     Update method      Time    Convergence         Total energy    Change
  ------------------------------------------------------------------------------
     1 NoMix/Diag. 0.10E+00    1.7     1.28173188       -12.8860237592 -1.29E+01
     2 Broy./Diag. 0.10E+00    1.8     0.06970415       -11.1675412363  1.72E+00
     3 Broy./Diag. 0.10E+00    1.7     0.39581522       -11.8610973410 -6.94E-01
     4 Broy./Diag. 0.10E+00    1.7     0.01882051       -12.5831449853 -7.22E-01
     5 Broy./Diag. 0.10E+00    1.8     0.12955538       -12.6776695178 -9.45E-02
     6 Broy./Diag. 0.10E+00    1.6     0.00566352       -12.7520476077 -7.44E-02
     7 Broy./Diag. 0.10E+00    1.7     0.04299275       -12.7971998101 -4.52E-02
     8 Broy./Diag. 0.10E+00    1.5     0.00324539       -12.8388305747 -4.16E-02
     9 Broy./Diag. 0.10E+00    1.5     0.02472779       -12.8447524362 -5.92E-03
    10 Broy./Diag. 0.10E+00    1.6     0.00082354       -12.8617407873 -1.70E-02
    11 Broy./Diag. 0.10E+00    1.6     0.01003615       -12.8566321222  5.11E-03
    12 Broy./Diag. 0.10E+00    1.6     0.00042582       -12.8601475203 -3.52E-03
    13 Broy./Diag. 0.10E+00    1.6     0.00291615       -12.8643250221 -4.18E-03
    14 Broy./Diag. 0.10E+00    1.5     0.00101882       -12.8665930873 -2.27E-03
    15 Broy./Diag. 0.10E+00    1.6     0.00067164       -12.8686582472 -2.07E-03
    16 Broy./Diag. 0.10E+00    1.5     0.00077661       -12.8680534837  6.05E-04
    17 Broy./Diag. 0.10E+00    1.5     0.00038974       -12.8671382675  9.15E-04
    18 Broy./Diag. 0.10E+00    1.5     0.00024691       -12.8673969844 -2.59E-04
    19 Broy./Diag. 0.10E+00    1.5     0.00047246       -12.8668154349  5.82E-04
    20 Broy./Diag. 0.10E+00    1.6     0.00046970       -12.8667169583  9.85E-05
    21 Broy./Diag. 0.10E+00    1.7     0.00008811       -12.8667565047 -3.95E-05
    22 Broy./Diag. 0.10E+00    1.6     0.00030013       -12.8668798261 -1.23E-04
    23 Broy./Diag. 0.10E+00    1.5     0.00002589       -12.8670705871 -1.91E-04
    24 Broy./Diag. 0.10E+00    1.6     0.00015307       -12.8671616065 -9.10E-05
    25 Broy./Diag. 0.10E+00    1.5     0.00003534       -12.8670177137  1.44E-04
    26 Broy./Diag. 0.10E+00    1.5     0.00008659       -12.8669125772  1.05E-04
    27 Broy./Diag. 0.10E+00    1.6     0.00002441       -12.8669974047 -8.48E-05
    28 Broy./Diag. 0.10E+00    1.5     0.00003909       -12.8670196375 -2.22E-05
    29 Broy./Diag. 0.10E+00    1.5     0.00009653       -12.8670965730 -7.69E-05
    30 Broy./Diag. 0.10E+00    1.5     0.00000707       -12.8671143545 -1.78E-05
    31 Broy./Diag. 0.10E+00    1.4     0.00001057       -12.8670853093  2.90E-05
    32 Broy./Diag. 0.10E+00    1.5     0.00001639       -12.8671256025 -4.03E-05
    33 Broy./Diag. 0.10E+00    1.5     0.00002982       -12.8671365663 -1.10E-05
    34 Broy./Diag. 0.10E+00    1.5     0.00002053       -12.8670786394  5.79E-05
    35 Broy./Diag. 0.10E+00    1.5     0.00004125       -12.8670429294  3.57E-05
    36 Broy./Diag. 0.10E+00    1.4     0.00000091       -12.8670156089  2.73E-05
    37 Broy./Diag. 0.10E+00    1.4     0.00000325       -12.8670206898 -5.08E-06
    38 Broy./Diag. 0.10E+00    1.5     0.00000108       -12.8670200814  6.08E-07
    39 Broy./Diag. 0.10E+00    1.4     0.00000149       -12.8670186516  1.43E-06
    40 Broy./Diag. 0.10E+00    1.5     0.00000050       -12.8670188845 -2.33E-07
    41 Broy./Diag. 0.10E+00    1.6     0.00000043       -12.8670198056 -9.21E-07
    42 Broy./Diag. 0.10E+00    1.5     0.00000047       -12.8670194703  3.35E-07
    43 Broy./Diag. 0.10E+00    1.6     0.00000070       -12.8670190513  4.19E-07
    44 Broy./Diag. 0.10E+00    1.4     0.00000036       -12.8670197244 -6.73E-07
    45 Broy./Diag. 0.10E+00    1.5     0.00000020       -12.8670199054 -1.81E-07
    46 Broy./Diag. 0.10E+00    1.5     0.00000018       -12.8670195291  3.76E-07
    47 Broy./Diag. 0.10E+00    1.5     0.00000007       -12.8670194453  8.38E-08
    48 Broy./Diag. 0.10E+00    1.4     0.00000006       -12.8670195505 -1.05E-07
    49 Broy./Diag. 0.10E+00    1.6     0.00000010       -12.8670195089  4.16E-08
    50 Broy./Diag. 0.10E+00    1.6     0.00000007       -12.8670193977  1.11E-07
    51 Broy./Diag. 0.10E+00    1.4     0.00000004       -12.8670194643 -6.66E-08
    52 Broy./Diag. 0.10E+00    1.5     0.00000020       -12.8670195503 -8.60E-08
    53 Broy./Diag. 0.10E+00    1.5     0.00000007       -12.8670195178  3.25E-08
    54 Broy./Diag. 0.10E+00    1.6     0.00000007       -12.8670194811  3.67E-08
    55 Broy./Diag. 0.10E+00    1.6     0.00000009       -12.8670195283 -4.72E-08
    56 Broy./Diag. 0.10E+00    1.5     0.00000005       -12.8670194923  3.60E-08
    57 Broy./Diag. 0.10E+00    1.5     0.00000008       -12.8670193901  1.02E-07
    58 Broy./Diag. 0.10E+00    1.5     0.00000004       -12.8670193789  1.12E-08
    59 Broy./Diag. 0.10E+00    1.5     0.00000005       -12.8670194492 -7.03E-08
    60 Broy./Diag. 0.10E+00    1.6     0.00000002       -12.8670194223  2.69E-08
    61 Broy./Diag. 0.10E+00    1.6     0.00000002       -12.8670194223  1.53E-11
    62 Broy./Diag. 0.10E+00    1.5     0.00000003       -12.8670194764 -5.41E-08
    63 Broy./Diag. 0.10E+00    1.6     0.00000005       -12.8670194666  9.80E-09
    64 Broy./Diag. 0.10E+00    1.5     0.00000002       -12.8670194362  3.03E-08
    65 Broy./Diag. 0.10E+00    1.6     0.00000002       -12.8670194477 -1.15E-08
    66 Broy./Diag. 0.10E+00    1.5     0.00000003       -12.8670194478 -1.39E-10
    67 Broy./Diag. 0.10E+00    1.5     0.00000003       -12.8670193854  6.24E-08
    68 Broy./Diag. 0.10E+00    1.5     0.00000003       -12.8670193971 -1.17E-08
    69 Broy./Diag. 0.10E+00    1.6     0.00000003       -12.8670194564 -5.93E-08
    70 Broy./Diag. 0.10E+00    1.5     8.3055E-09       -12.8670194690 -1.26E-08
    71 Broy./Diag. 0.10E+00    1.5     9.7810E-09       -12.8670194563  1.27E-08
    72 Broy./Diag. 0.10E+00    1.4     0.00000002       -12.8670194783 -2.20E-08
    73 Broy./Diag. 0.10E+00    1.6     0.00000002       -12.8670194958 -1.76E-08
    74 Broy./Diag. 0.10E+00    1.5     0.00000001       -12.8670194812  1.46E-08
    75 Broy./Diag. 0.10E+00    1.6     0.00000001       -12.8670194777  3.58E-09
    76 Broy./Diag. 0.10E+00    1.4     7.8354E-09       -12.8670194936 -1.59E-08
    77 Broy./Diag. 0.10E+00    1.5     0.00000002       -12.8670194838  9.79E-09
    78 Broy./Diag. 0.10E+00    1.5     0.00000001       -12.8670194666  1.71E-08
    79 Broy./Diag. 0.10E+00    1.5     0.00000002       -12.8670194968 -3.02E-08
    80 Broy./Diag. 0.10E+00    1.6     9.1342E-09       -12.8670195263 -2.95E-08
    81 Broy./Diag. 0.10E+00    1.6     4.2548E-09       -12.8670195153  1.11E-08
    82 Broy./Diag. 0.10E+00    1.5     0.00000002       -12.8670195212 -5.90E-09
    83 Broy./Diag. 0.10E+00    1.5     0.00000001       -12.8670195475 -2.63E-08
    84 Broy./Diag. 0.10E+00    1.4     7.1355E-09       -12.8670195379  9.58E-09
    85 Broy./Diag. 0.10E+00    1.5     7.0851E-09       -12.8670195256  1.23E-08
    86 Broy./Diag. 0.10E+00    1.5     3.1852E-09       -12.8670195379 -1.23E-08
    87 Broy./Diag. 0.10E+00    1.5     0.00000002       -12.8670195428 -4.88E-09
    88 Broy./Diag. 0.10E+00    1.5     8.8511E-09       -12.8670195248  1.80E-08
    89 Broy./Diag. 0.10E+00    1.6     9.0693E-09       -12.8670195370 -1.22E-08
    90 Broy./Diag. 0.10E+00    1.5     0.00000001       -12.8670195663 -2.93E-08
    91 Broy./Diag. 0.10E+00    1.5     6.5061E-09       -12.8670195656  6.79E-10
    92 Broy./Diag. 0.10E+00    1.4     5.6489E-09       -12.8670195538  1.19E-08
    93 Broy./Diag. 0.10E+00    1.5     5.3810E-09       -12.8670195625 -8.74E-09
    94 Broy./Diag. 0.10E+00    1.5     2.2743E-09       -12.8670195644 -1.91E-09
    95 Broy./Diag. 0.10E+00    1.5     4.9945E-09       -12.8670195539  1.06E-08
    96 Broy./Diag. 0.10E+00    1.5     3.9129E-09       -12.8670195538  1.06E-10
    97 Broy./Diag. 0.10E+00    1.6     3.7042E-09       -12.8670195589 -5.17E-09
    98 Broy./Diag. 0.10E+00    1.4     4.9783E-09       -12.8670195548  4.12E-09
    99 Broy./Diag. 0.10E+00    1.5     2.4382E-09       -12.8670195515  3.28E-09
   100 Broy./Diag. 0.10E+00    1.7     3.3199E-09       -12.8670195567 -5.22E-09
   101 Broy./Diag. 0.10E+00    1.7     3.1688E-09       -12.8670195588 -2.01E-09
   102 Broy./Diag. 0.10E+00    1.6     4.1479E-09       -12.8670195498  8.91E-09
   103 Broy./Diag. 0.10E+00    1.5     2.7951E-09       -12.8670195470  2.83E-09
   104 Broy./Diag. 0.10E+00    1.6     1.5672E-09       -12.8670195487 -1.71E-09
   105 Broy./Diag. 0.10E+00    1.4     3.4080E-09       -12.8670195438  4.91E-09
   106 Broy./Diag. 0.10E+00    1.5     3.2299E-09       -12.8670195404  3.42E-09
   107 Broy./Diag. 0.10E+00    1.4     1.9319E-09       -12.8670195430 -2.65E-09
   108 Broy./Diag. 0.10E+00    1.6     2.5871E-09       -12.8670195438 -7.36E-10
   109 Broy./Diag. 0.10E+00    1.5     1.8515E-09       -12.8670195396  4.21E-09
   110 Broy./Diag. 0.10E+00    1.5     1.4501E-09       -12.8670195392  3.49E-10
   111 Broy./Diag. 0.10E+00    1.4     2.4986E-09       -12.8670195416 -2.36E-09
   112 Broy./Diag. 0.10E+00    1.5     1.6221E-09       -12.8670195387  2.90E-09
   113 Broy./Diag. 0.10E+00    1.5     1.7710E-09       -12.8670195347  3.96E-09
   114 Broy./Diag. 0.10E+00    1.5     1.2592E-09       -12.8670195354 -7.04E-10
   115 Broy./Diag. 0.10E+00    1.5     1.0979E-09       -12.8670195349  5.33E-10
   116 Broy./Diag. 0.10E+00    1.5     1.8752E-09       -12.8670195323  2.59E-09
   117 Broy./Diag. 0.10E+00    1.5     9.9611E-10       -12.8670195338 -1.51E-09

  *** SCF run converged in   117 steps ***


  Electronic density on regular grids:         -8.0000000000        0.0000000000
  Core density on regular grids:                8.0000000000       -0.0000000000
  Total charge density on r-space grids:       -0.0000000000
  Total charge density g-space grids:          -0.0000000000

  Overlap energy of the core charge distribution:               0.00000102720762
  Self energy of the core charge distribution:                -30.91005782344042
  Core Hamiltonian energy:                                      9.49776707527226
  Hartree energy:                                              12.22279987578251
  Exchange-correlation energy:                                 -3.67752968861760

  Total energy:                                               -12.86701953379563

 !-----------------------------------------------------------------------------!
                     Mulliken Population Analysis

 #  Atom  Element  Kind  Atomic population                           Net charge
       1     B        1          3.101032                             -0.101032
       2     N        2          4.898968                              0.101032
 # Total charge                              8.000000                  0.000000

 !-----------------------------------------------------------------------------!

 !-----------------------------------------------------------------------------!
                           Hirshfeld Charges

  #Atom  Element  Kind  Ref Charge     Population                    Net charge
      1       B      1       3.000          2.610                         0.390
      2       N      2       5.000          5.389                        -0.389

  Total Charge                                                            0.001
 !-----------------------------------------------------------------------------!
  
 -------------------------------------------------------------------------------
 -                                                                             -
 -                          BANDSTRUCTURE CALCULATION                          -
 -                                                                             -
 -------------------------------------------------------------------------------
  
 Number of occupied molecular orbitals (MOs) = Number of occupied bands        4
 Number of unoccupied (= virtual) MOs = Number of unoccupied bands            22
 Number of Gaussian basis functions for MOs                                   26
 Number of cells considered in the DFT calculation                           315
 Number of cells for G, χ, W, Σ                                              529
 Number of special k-points for the bandstructure                              4
 Number of k-points for the bandstructure                                    724
  
 -------------------------------------------------------------------------------
 -                                                                             -
 -                                GW CALCULATION                               -
 -                                                                             -
 -------------------------------------------------------------------------------
  
 Input: Number of time/freq. points                                           30
 Input: ω_max for fitting Σ(iω) (eV)                                        10.0
 Input: Filter threshold for sparse tensor operations                    1.0E-11
 Input: Apply Hedin shift                                                      F
  
 Number of auxiliary Gaussian basis functions for χ, ε, W                     47
 Cutoff radius for the truncated Coulomb operator in Σ^x:                 25.0 Å
 Cutoff radius for the truncated Coulomb operator in RI metric:            7.0 Å
 Regularization parameter of RI                                          1.0E-02
 Regularization parameter of minimax grids                               1.0E-06
 Lattice sum size for V(k):                                                    3
  
 K-point mesh 1 for χ, ε, W                                           96  96   1
 K-point mesh 2 for χ, ε, W (for k-point extrapolation of W)         192 192   1
 Approximate the k-point extrapolation                                         F
 Radius of atomic orbitals                                                11.8 Å
 Radius of RI functions                                                    8.7 Å
 Number of cells for 3c integrals                                            395
 Number of cell pairs for 3c integrals                                     39409
 
 Input: Available memory per MPI process                                 32.0 GB
 Used memory per MPI process before GW run                                0.4 GB
 Memory of three-center integrals                                        10.0 GB
 Group size for tensor operations                                              1
 Number of cells ΔR                                                         1539
 Min. abs. eigenvalue of RI metric matrix M(k)                           2.4E-04
 Max. abs. eigenvalue of RI metric matrix M(k)                           1.1E+03
 Max. condition number of M(k)                                           6.2E+06
 
 SCF direct band gap (eV)                                                   4.67
 Max. SCF eigval diff. (eV)                                               262.87
 E-Range for minimax grid                                                  56.28
 Number of Padé parameters for analytic continuation:                         16
 
 Computed χ^R(iτ) for time point            1 / 30,      Execution time  242.6 s
 Computed χ^R(iτ) for time point            2 / 30,      Execution time  487.7 s
 Computed χ^R(iτ) for time point            3 / 30,      Execution time  525.1 s
 Computed χ^R(iτ) for time point            4 / 30,      Execution time  527.7 s
 Computed χ^R(iτ) for time point            5 / 30,      Execution time  526.6 s
 Computed χ^R(iτ) for time point            6 / 30,      Execution time  526.3 s
 Computed χ^R(iτ) for time point            7 / 30,      Execution time  523.4 s
 Computed χ^R(iτ) for time point            8 / 30,      Execution time  519.0 s
 Computed χ^R(iτ) for time point            9 / 30,      Execution time  505.2 s
 Computed χ^R(iτ) for time point           10 / 30,      Execution time  499.2 s
 Computed χ^R(iτ) for time point           11 / 30,      Execution time  484.2 s
 Computed χ^R(iτ) for time point           12 / 30,      Execution time  473.7 s
 Computed χ^R(iτ) for time point           13 / 30,      Execution time  466.3 s
 Computed χ^R(iτ) for time point           14 / 30,      Execution time  457.9 s
 Computed χ^R(iτ) for time point           15 / 30,      Execution time  445.9 s
 Computed χ^R(iτ) for time point           16 / 30,      Execution time  447.5 s
 Computed χ^R(iτ) for time point           17 / 30,      Execution time  435.0 s
 Computed χ^R(iτ) for time point           18 / 30,      Execution time  410.7 s
 Computed χ^R(iτ) for time point           19 / 30,      Execution time  375.9 s
 Computed χ^R(iτ) for time point           20 / 30,      Execution time  335.4 s
 Computed χ^R(iτ) for time point           21 / 30,      Execution time  275.0 s
 Computed χ^R(iτ) for time point           22 / 30,      Execution time  202.4 s
 Computed χ^R(iτ) for time point           23 / 30,      Execution time   11.2 s
 Computed χ^R(iτ) for time point           24 / 30,      Execution time    3.5 s
 Computed χ^R(iτ) for time point           25 / 30,      Execution time    3.3 s
 Computed χ^R(iτ) for time point           26 / 30,      Execution time    3.4 s
 Computed χ^R(iτ) for time point           27 / 30,      Execution time    3.3 s
 Computed χ^R(iτ) for time point           28 / 30,      Execution time    3.6 s
 Computed χ^R(iτ) for time point           29 / 30,      Execution time    3.4 s
 Computed χ^R(iτ) for time point           30 / 30,      Execution time    3.8 s
 Computed V_PQ(k),                                       Execution time  167.9 s
 
 Computed W_PQ(k,iω) for all k and τ,                    Execution time   65.4 s
 
 Computed Σ^x,                                           Execution time  855.1 s
 
 Computed Σ^c(iτ) for time point            1 / 30,      Execution time  641.8 s
 Computed Σ^c(iτ) for time point            2 / 30,      Execution time  329.0 s
 Computed Σ^c(iτ) for time point            3 / 30,      Execution time  312.8 s
 Computed Σ^c(iτ) for time point            4 / 30,      Execution time  296.1 s
 Computed Σ^c(iτ) for time point            5 / 30,      Execution time  293.0 s
 Computed Σ^c(iτ) for time point            6 / 30,      Execution time  290.1 s
 Computed Σ^c(iτ) for time point            7 / 30,      Execution time  288.2 s
 Computed Σ^c(iτ) for time point            8 / 30,      Execution time  283.3 s
 Computed Σ^c(iτ) for time point            9 / 30,      Execution time  278.2 s
 Computed Σ^c(iτ) for time point           10 / 30,      Execution time  270.9 s
 Computed Σ^c(iτ) for time point           11 / 30,      Execution time  261.6 s
 Computed Σ^c(iτ) for time point           12 / 30,      Execution time  254.4 s
 Computed Σ^c(iτ) for time point           13 / 30,      Execution time  247.3 s
 Computed Σ^c(iτ) for time point           14 / 30,      Execution time  240.1 s
 Computed Σ^c(iτ) for time point           15 / 30,      Execution time  233.4 s
 Computed Σ^c(iτ) for time point           16 / 30,      Execution time  226.8 s
 Computed Σ^c(iτ) for time point           17 / 30,      Execution time  216.1 s
 Computed Σ^c(iτ) for time point           18 / 30,      Execution time  209.4 s
 Computed Σ^c(iτ) for time point           19 / 30,      Execution time  193.1 s
 Computed Σ^c(iτ) for time point           20 / 30,      Execution time  170.3 s
 Computed Σ^c(iτ) for time point           21 / 30,      Execution time  158.4 s
 Computed Σ^c(iτ) for time point           22 / 30,      Execution time  131.5 s
 Computed Σ^c(iτ) for time point           23 / 30,      Execution time   24.4 s
 Computed Σ^c(iτ) for time point           24 / 30,      Execution time    3.2 s
 Computed Σ^c(iτ) for time point           25 / 30,      Execution time    3.4 s
 Computed Σ^c(iτ) for time point           26 / 30,      Execution time    3.4 s
 Computed Σ^c(iτ) for time point           27 / 30,      Execution time    3.3 s
 Computed Σ^c(iτ) for time point           28 / 30,      Execution time    3.2 s
 Computed Σ^c(iτ) for time point           29 / 30,      Execution time    3.3 s
 Computed Σ^c(iτ) for time point           30 / 30,      Execution time    3.3 s

 
 SCF valence band maximum (eV):                                           -3.666
 SCF conduction band minimum (eV):                                         1.004
 SCF indirect band gap (eV):                                               4.671
 SCF direct band gap (eV):                                                 4.671
 
 G0W0 valence band maximum (eV):                                      286461.743
 G0W0 conduction band minimum (eV):                              -3926734355.768
 G0W0 indirect band gap (eV):                                    -3927020817.511
 G0W0 direct band gap (eV):                                      -3926790679.203
 
 Hartree-Fock with SCF orbitals valence band maximum (eV):            287819.203
 Hartree-Fock with SCF orbitals conduction band minimum (eV)     -3926763191.852
 Hartree-Fock with SCF orbitals indirect band gap (eV):          -3927051011.055
 Hartree-Fock with SCF orbitals direct band gap (eV):            -3926822495.812

 ENERGY| Total FORCE_EVAL ( QS ) energy [hartree]            -12.867019535495754

 -------------------------------------------------------------------------------
 -                                                                             -
 -                                DBCSR STATISTICS                             -
 -                                                                             -
 -------------------------------------------------------------------------------
 COUNTER                                    TOTAL       BLAS       SMM       ACC
 flops inhomo. stacks                           0       0.0%      0.0%      0.0%
 flops total                         0.000000E+00       0.0%      0.0%      0.0%
 flops max/rank                      0.000000E+00       0.0%      0.0%      0.0%
 matmuls inhomo. stacks                         0       0.0%      0.0%      0.0%
 matmuls total                                  0       0.0%      0.0%      0.0%
 number of processed stacks                     0       0.0%      0.0%      0.0%
 average stack size                                     0.0       0.0       0.0
 marketing flops                     0.000000E+00
 -------------------------------------------------------------------------------
 -                                                                             -
 -                      DBCSR MESSAGE PASSING PERFORMANCE                      -
 -                                                                             -
 -------------------------------------------------------------------------------
 ROUTINE             CALLS      AVE VOLUME [Bytes]
 MP_Bcast                1                     12.
 MP_Allreduce           19                     21.
 MP_Alltoall       4225745                  45957.
 -------------------------------------------------------------------------------

 -------------------------------------------------------------------------------
 -                                                                             -
 -                                DBM STATISTICS                               -
 -                                                                             -
 -------------------------------------------------------------------------------
    M  x    N  x    K                                          COUNT     PERCENT
    ?  x    ?  x    ?                                     9701257390      49.82%
   ??  x   ??  x  ???                                     3256654462      16.73%
  ???  x   ??  x   ??                                     6512874130      33.45%
 -------------------------------------------------------------------------------
 Memory consumption                Number of allocations  Used [MiB]  Size [MiB]
 Host                                             147365       10131       12790
 -------------------------------------------------------------------------------

 -------------------------------------------------------------------------------
 -                                                                             -
 -                                GRID STATISTICS                              -
 -                                                                             -
 -------------------------------------------------------------------------------
 LP    KERNEL             BACKEND                              COUNT     PERCENT
 4     integrate general  CPU                                 655680      50.39%
 4     collocate general  CPU                                 644752      49.55%
 0     collocate general  CPU                                    512       0.04%
 0     integrate general  CPU                                    256       0.02%
 -------------------------------------------------------------------------------

 MEMORY| Estimated peak process memory [MiB]                               15353

 -------------------------------------------------------------------------------
 ----                             MULTIGRID INFO                            ----
 -------------------------------------------------------------------------------
 count for grid        1:         477899          cutoff [a.u.]          500.00
 count for grid        2:         418592          cutoff [a.u.]          166.67
 count for grid        3:         472540          cutoff [a.u.]           55.56
 count for grid        4:         225446          cutoff [a.u.]           18.52
 total gridlevel count  :        1594477

 -------------------------------------------------------------------------------
 -                                                                             -
 -                         MESSAGE PASSING PERFORMANCE                         -
 -                                                                             -
 -------------------------------------------------------------------------------

 ROUTINE             CALLS      AVE VOLUME [Bytes]
 MP_Group         76499165
 MP_Bcast         49150874                    321.
 MP_Allreduce    137538107                    122.
 MP_Sync         124148896
 MP_Alltoall      60074142                    485.
 MP_SendRecv         44958                   4672.
 MP_ISendRecv        45720                   4672.
 MP_Wait           1330690
 MP_comm_split    47935330
 MP_ISend         17228622                   2187.
 MP_IRecv          8536318                   2323.
 -------------------------------------------------------------------------------


 -------------------------------------------------------------------------------
 -                                                                             -
 -                           R E F E R E N C E S                               -
 -                                                                             -
 -------------------------------------------------------------------------------
 
 CP2K version 2025.2 (Development Version), the CP2K developers group (2025).
 CP2K is freely available from https://www.cp2k.org/ .
 
 M. Graml, K. Zollner, D. Hernangómez-Pérez, P. E. Faria Junior, J. Wilhelm.
 J. Chem. Theory Comput. 20, 2202-2208 (2024).
 Low-scaling GW algorithm applied to twisted transition-metal dichalcogenide 
 heterobilayers.
 https://doi.org/10.1021/acs.jctc.3c01230

 T. D. Kuehne, M. Iannuzzi, M. Del Ben, V. V. Rybkin, P. Seewald, F. Stein, T. 
 Laino, R. Z. Khaliullin, O. Schuett, F. Schiffmann, D. Golze, J. Wilhelm, S. 
 Chulkov, M. H. Bani-Hashemian, V. Weber, U. Borstnik, M. Taillefumier, A. S. 
 Jakobovits, A. Lazzaro, H. Pabst, T. Mueller, R. Schade, M. Guidon, S. 
 Andermatt, N. Holmberg, G. K. Schenter, A. Hehn, A. Bussy, F. Belleflamme, G. 
 Tabacchi, A. Gloess, M. Lass, I. Bethune, C. J. Mundy, C. Plessl, M. Watkins, 
 J. VandeVondele, M. Krack, J. Hutter.
 J. Chem. Phys. 152, 194103 (2020).
 CP2K: An electronic structure and molecular dynamics software package - 
 Quickstep: Efficient and accurate electronic structure calculations.
 https://doi.org/10.1063/5.0007045

 A. Togo, I. Tanaka.
 arXiv, 1808.01590 (2018).
 Spglib : a software library for crystal symmetry search.

 O. Schuett, P. Messmer, J. Hutter, J. VandeVondele.
 Electronic Structure Calculations on Graphics Processing Units, 173-190 (2016).
 GPU-Accelerated Sparse Matrix-Matrix Multiplication for Linear Scaling Density 
 Functional Theory.
 https://doi.org/10.1002/9781118670712.ch8

 A. Heinecke, G. Henry, M. Hutchinson, H. Pabst.
 Proceedings of Intl. Supercomputing Conference, 981-991 (2016).
 LIBXSMM: Accelerating Small Matrix Multiplications by Runtime Code Generation.
 https://doi.org/10.1109/SC.2016.83

 J. Hutter, M. Iannuzzi, F. Schiffmann, J. VandeVondele.
 WIREs Comput Mol Sci. 4, 15-25 (2014).
 CP2K: atomistic simulations of condensed matter systems.
 https://doi.org/10.1002/wcms.1159

 U. Borstnik, J. VandeVondele, V. Weber, J. Hutter.
 Parallel Comput. 40, 47-58 (2014).
 Sparse matrix multiplication: The distributed block-compressed sparse row 
 library.
 https://doi.org/10.1016/j.parco.2014.03.012

 A. Marek, V. Blum, R. Johanni, V. Havu, B. Lang, T. Auckenthaler, A. Heinecke, 
 H. Bungartz, H. Lederer.
 J. Phys. Condens. Matter 26, 213201 (2014).
 The ELPA library: scalable parallel eigenvalue solutions for electronic 
 structure theory and computational science.
 https://doi.org/10.1088/0953-8984/26/21/213201

 J. VandeVondele, J. Hutter.
 J. Chem. Phys. 127, 114105 (2007).
 Gaussian basis sets for accurate calculations on molecular systems in gas and 
 condensed phases.
 https://doi.org/10.1063/1.2770708

 J. VandeVondele, M. Krack, F. Mohamed, M. Parrinello, T. Chassaing, J. Hutter.
 Comput. Phys. Commun. 167, 103-128 (2005).
 QUICKSTEP: Fast and accurate density functional calculations using a mixed 
 Gaussian and plane waves approach.
 https://doi.org/10.1016/j.cpc.2004.12.014

 M. Krack.
 Theor. Chem. Acc. 114, 145-152 (2005).
 Pseudopotentials for H to Kr optimized for gradient-corrected 
 exchange-correlation functionals.
 https://doi.org/10.1007/s00214-005-0655-y

 M. Frigo, S. G. Johnson.
 Proc. IEEE 93, 216-231 (2005).
 The design and implementation of FFTW3.
 https://doi.org/10.1109/JPROC.2004.840301

 C. Hartwigsen, S. Goedecker, J. Hutter.
 Phys. Rev. B 58, 3641-3662 (1998).
 Relativistic separable dual-space Gaussian pseudopotentials from H to Rn.
 https://doi.org/10.1103/PhysRevB.58.3641

 G. Lippert, J. Hutter, M. Parrinello.
 Mol. Phys. 92, 477-487 (1997).
 A hybrid Gaussian and plane wave density functional scheme.
 https://doi.org/10.1080/002689797170220

 S. Goedecker, M. Teter, J. Hutter.
 Phys. Rev. B 54, 1703-1710 (1996).
 Separable dual-space Gaussian pseudopotentials.
 https://doi.org/10.1103/PhysRevB.54.1703

 J. P. Perdew, K. Burke, M. Ernzerhof.
 Phys. Rev. Lett. 77, 3865-3868 (1996).
 Generalized gradient approximation made simple.
 https://doi.org/10.1103/PhysRevLett.77.3865


 -------------------------------------------------------------------------------
 -                                                                             -
 -                                T I M I N G                                  -
 -                                                                             -
 -------------------------------------------------------------------------------
 SUBROUTINE                       CALLS  ASD         SELF TIME        TOTAL TIME
                                MAXIMUM       AVERAGE  MAXIMUM  AVERAGE  MAXIMUM
 CP2K                                 1  1.0     0.04     0.05 17314.97 17315.19
 qs_energies                          1  2.0     0.00     0.00 17071.43 17071.65
 qs_energies_properties               1  3.0     0.00     0.00 16889.88 16890.09
 post_scf_bandstructure               1  4.0     0.00     0.00 16889.88 16890.09
 gw                                   1  5.0     0.00     0.00 16878.36 16878.57
 gw_calc_small_cell_full_kp           1  6.0     0.00     0.00 16838.97 16839.18
 dbt_total                      *******  9.6    48.22    50.99 13553.71 15348.12
 dbt_contract                   ******* 10.4   100.83   106.98 12920.37 14702.13
 dbt_tas_multiply               ******* 13.0    15.13    17.24 12235.80 13975.65
 dbt_tas_total                  ******* 14.0   562.66   596.78 12226.28 13965.76
 compute_chi                          1  7.0     0.09     0.64  9777.38  9777.92
 dbt_tas_estimate_result_nze    9261107 13.5   271.65   292.39  6435.53  7475.32
 G_times_3c                       47056  8.0     9.62    10.18  5233.70  6264.74
 compute_Sigma_c                      1  7.0     0.00     0.00  5875.16  5875.53
 contract_to_Sigma                  363  8.0    41.63    46.22  3677.28  4089.33
 mp_sync                        ******* 12.8  2213.81  3919.57  2213.81  3919.57
 contract_M_occ_vir_to_chi          146  8.0    63.24    68.97  2601.51  3333.11
 dbm_reserve_blocks             ******* 16.7  2310.30  2975.23  2310.30  2975.23
 dbt_tas_dbm                    ******* 15.0    13.65    14.77  2418.05  2895.19
 dbm_multiply                   ******* 17.0  2388.00  2863.28  2388.00  2863.28
 convert_to_new_pgrid           ******* 15.0    78.58    85.08  2069.14  2488.39
 contract_W                         188  8.0    14.14    15.31  2266.49  2483.07
 dbm_copy                       ******* 16.0  1990.56  2408.33  1990.56  2408.33
 reshape_mm_small               ******* 15.0  1052.54  1154.55  2180.11  2402.67
 contract_to_Sigma_3c_x_G       3081265  9.0     3.74     4.08  2053.38  2219.54
 dbt_tas_reserve_blocks_index   ******* 15.9    37.26    39.38  1462.00  2044.34
 contract_to_Sigma_contract       53038  9.0    10.48    11.56  1571.53  1814.14
 dbt_tas_reserve_blocks_templat ******* 14.2    30.84    33.47   876.43  1399.54
 dbt_tas_mm_1N                  4265466 15.5     2.12     2.45  1070.97  1338.30
 dbt_tas_replicate              ******* 15.0   171.99   184.86  1177.80  1310.86
 dbt_tas_reshape                ******* 15.5    83.67    89.44   931.46  1107.43
 dbt_tas_create_split           ******* 16.1    29.50    31.88  1028.55  1106.19
 dbt_tas_create_split_rows_or_c ******* 17.1   109.91   118.73   999.06  1075.02
 reshape_mm_compatible          ******* 15.0   141.51   150.84   951.97  1019.85
 dbt_tas_mm_2                   6524552 16.1     5.48     6.04   787.95   994.57
 compute_Sigma_x                      1  7.0     0.00     0.00   856.52   856.81
 dbm_add                        ******* 15.0   655.48   852.31   655.48   852.31
 dbt_tas_reshape_buffer_obtain  ******* 16.5    87.14    97.37   631.77   793.26
 dbt_tas_distribution_new       ******* 15.8   361.61   390.28   709.72   762.15
 dbt_copy                       ******* 10.9    70.68    76.29   690.32   736.98
 change_split                   ******* 15.5    46.29    51.13   646.61   697.02
 dbt_tas_mm_3T                  8082166 16.1     4.35     4.77   542.55   585.08
 mp_cart_create                 ******* 16.8   442.80   475.24   491.83   528.38
 dbt_reshape                    ******* 11.8   317.29   352.50   453.34   500.46
 dbt_remap                      1532258 11.0   135.21   150.94   364.75   406.95
 get_t_3c_int                   9658827  9.3    19.60    20.79   347.89   382.75
 dbcsr_complete_redistribute     355890  9.3     6.58    19.28   330.06   371.90
 mp_alltoall_i22                 702793  9.7   307.68   369.54   307.68   369.54
 mp_comm_dup                    ******* 18.6   312.16   338.11   340.15   368.47
 G_occ_vir                          121  8.0     0.14     0.17   306.44   312.21
 dbt_destroy                    ******* 11.0   248.55   304.50   254.53   310.24
 dbt_tas_merge                  6524552 15.1    65.16    72.33   183.25   284.54
 fm_to_local_tensor               80408  9.0     0.70     0.88   269.56   270.02
 mp_comm_split_direct           ******* 18.1   212.56   231.45   226.75   245.99
 copy_fm_to_dbcsr                148115  9.1     0.31     0.32   199.77   244.76
 bs_env_release                       1  2.0     0.35     0.45   187.48   241.73
 compute_W_real_space                 1  7.0     1.04     1.13   233.83   234.00
 copy_dbcsr_to_fm                207775  7.7     1.07     1.14   216.34   228.80
 mp_comm_free                   ******* -8.7   196.45   211.75   196.45   211.75
 global_matrix_to_local_matrix    80408 10.0     0.72     1.11    72.68   186.40
 scf_env_do_scf                       1  3.0     0.00     0.00   180.91   180.92
 scf_env_do_scf_inner_loop          117  4.0     0.02     0.02   180.91   180.92
 dbt_permute_index              ******* 12.2   149.17   159.21   168.50   179.86
 send_data                        80408 11.0     0.05     0.05    50.61   168.46
 qs_scf_new_mos_kp                  117  5.0     0.00     0.00   167.95   168.41
 do_general_diag_kp                 117  6.0     0.32     0.33   167.95   168.41
 communicate_buffer               80408 12.0     0.31     5.51    50.57   168.41
 compute_Minv_and_Vsqrt               1  8.0     0.01     0.01   167.95   168.08
 build_2c_coulomb_matrix_kp_sma       2  9.0     0.89     2.71   166.65   166.78
 parallel_gemm_cfm               162368  9.0     0.10     0.12   155.50   161.74
 parallel_gemm_cfm_cosma         162368 10.0   155.40   161.65   155.40   161.65
 dbt_align_index                ******* 11.5    25.38    27.51   143.15   153.86
 dbt_tas_reshape_buffer_fill    ******* 16.5   138.59   152.87   138.59   152.87
 mp_waitall_1                   1190550 10.5    51.29   152.58    51.29   152.58
 reshape_mm_template            3064516 15.5    95.57   102.31   139.71   150.05
 dbt_tas_create_new             ******* 15.3   140.24   150.00   140.24   150.00
 dbcsr_desymmetrize_deep         346903  8.1     2.60     3.08   118.36   135.22
 local_dbt_to_global_fm              91  8.0     0.08     0.09   135.16   135.16
 mp_max_i                       ******* 11.4    60.25   126.57    60.25   126.57
 dbt_tas_mp_comm                ******* 13.1    14.23    15.31   112.23   122.24
 build_2c_coulomb_matrix_kp_sma  368640 10.0    98.25   101.60    98.25   101.60
 dbt_reserve_blocks_index_array ******* 12.8     8.72     9.54    92.50   101.45
 dbt_distribution_new_expert    3225342 12.4    15.63    17.38    89.95    97.57
 compute_QP_energies                  1  7.0     0.24     0.41    96.07    96.38
 trafo_to_k_and_nn                44164  8.0     0.13     0.17    95.18    95.41
 dbt_reserve_blocks_index       ******* 13.8    11.07    12.01    86.32    94.89
 mp_cart_get                    *******  3.7    80.44    90.54    80.44    90.54
 dbt_tas_copy                   5936780 12.3    39.98    51.01    75.67    90.28
 mp_comm_size                   ******* -3.5    80.64    88.58    80.64    88.58
 mp_cart_sub                     415629  9.7    79.86    79.93    79.86    79.93
 local_dbt_to_global_mat          48139  9.0     0.14     0.14    26.73    77.75
 local_matrix_to_global_matrix    48139 10.0     0.09     0.10    21.26    72.93
 comm_data                        48139 11.0     0.13     2.09    16.41    64.84
 mp_comm_rank                   ******* -3.5    53.33    62.12    53.33    62.12
 mp_waitall_2                     96278 12.0    15.06    61.62    15.06    61.62
 add_R                          *******  9.3    35.26    38.01    54.37    58.38
 dbt_create_new                 1612671 11.9    10.26    11.37    48.35    52.89
 dbt_communicate_buffer         ******* 12.8    42.92    49.71    42.92    49.71
 fm_MWM_R_t_to_local_tensor_W_R      30  8.0     0.01     0.01    47.60    47.62
 dbm_filter                     ******* 14.9    40.19    43.91    40.19    43.91
 dbt_copy_nocomm                1367732 11.0    22.15    27.11    33.60    40.01
 create_and_init_bs_env_for_gw        1  6.0     0.00     0.00    39.38    39.40
 destroy_t_2d                        62  8.0    11.18    15.36    30.18    39.32
 mp_sum_dm                       368756 10.0    34.80    38.90    34.80    38.90
 dbt_create_3c_R1_R2                 62  8.0     8.74     9.65    35.53    36.70
 dbt_tas_reshape_communicate_bu ******* 16.5    11.54    12.56    27.88    34.69
 is_cell_in_index_to_cell       *******  9.8    32.07    34.48    32.07    34.48
 kpoint_density_transform           117  7.0     0.10     0.11    31.92    31.95
 dbt_tas_communicate_buffer     ******* 17.2    22.78    29.08    22.78    29.08
 dbt_create_template            9930075  9.0    27.81    29.06    27.81    29.06
 compute_3c_integrals                 1  7.0     0.16     0.17    28.49    28.49
 build_3c_integrals                   1  8.0    19.53    21.53    25.78    27.69
 fm_to_local_array                  934  8.1     2.15     4.66    27.47    27.53
 mp_sum_l                       ******* 15.1    24.43    27.34    24.43    27.34
 mp_alltoall_i                  ******* 15.5    25.01    27.15    25.01    27.15
 mp_isend_dv                    8675992  9.4     1.76    27.04     1.76    27.04
 mp_sum_dm3                        1112  8.9    26.50    26.92    26.50    26.92
 dbt_tas_reshape_get_coord      ******* 16.5    24.87    26.86    24.87    26.86
 get_V_tr_R                          34  9.0     0.04     0.05    26.13    26.16
 add_V_L                         184320 10.0     0.81    26.07     0.81    26.07
 rskp_transform                   69564  7.0     0.35    25.59     0.35    25.59
 mult_W_with_Minv                    30  8.0     0.05     0.06    24.13    24.13
 dbm_scale                      ******* 14.8    20.89    22.74    20.89    22.74
 dbt_pgrid_create_expert        3225345 13.4     3.33     3.70    20.58    22.49
 cp_fm_start_copy_general        202176  7.3     1.13     1.88    20.64    21.37
 dbt_tas_reshape_alltoall       ******* 16.5    10.36    11.86    18.90    20.98
 mp_sum_i                       ******* 16.1    19.94    20.93    19.94    20.93
 fm_add_ikp_to_rs                 69696  9.0    11.11    11.50    16.93    17.76
 mp_alltoall_d11v               2108617 10.2     5.60    17.62     5.60    17.62
 dbt_create_2c_R                     98  8.0    14.28    17.13    14.45    17.30
 mp_allgather_i                  404352  8.3    15.69    17.08    15.69    17.08
 send_sizes_1                     80408 11.0     0.05     0.05    16.06    16.41
 dbt_nd_mp_comm                 1612666 11.9     2.16     2.36    13.55    14.76
 mp_bcast_i                     ******* 18.1    12.73    14.72    12.73    14.72
 mp_dims_create                 ******* 14.4    10.83    13.05    10.83    13.05
 dbt_reserve_blocks_template    1367732 12.0     2.05     2.36    11.45    12.89
 transform_dmat                   33696  8.0     0.16    12.29     0.16    12.29
 fm_trafo_rs_to_ikp               44164  9.0     7.10     7.45    10.92    12.05
 mp_alltoall_i11v               1414573 10.0     9.22    11.90     9.22    11.90
 dbt_tas_replicate_communicate_ ******* 15.9     6.41     7.02    10.68    11.69
 destroy_t_1d                        98  8.0     0.10     0.13    10.36    11.36
 add_rs_to_ikp                  *******  9.9     9.43    10.59     9.43    10.59
 dbcsr_finalize                 1237932 10.6     2.05     2.35     8.93    10.31
 dbt_tas_replicate_alltoall     ******* 15.9     5.52     6.07     8.82     9.89
 add_ikp_to_rs                  *******  9.9     9.33     9.89     9.33     9.89
 mp_cart_rank                   ******* 15.9     7.64     8.91     7.64     8.91
 dbt_distribution_destroy       3225342 12.4     6.04     6.77     7.76     8.67
 create_and_init_bs_env               1  5.0     0.00     0.00     8.61     8.61
 compute_cfm_mo_coeff_kp_and_ei       1  6.0     0.00     0.00     8.61     8.61
 dbt_create_matrix                80408 10.0     0.45     0.47     7.89     8.20
 qs_ks_update_qs_env                117  5.0     0.00     0.00     5.95     7.42
 dbt_buffer_get_index           ******* 16.8     6.30     7.23     6.30     7.23
 qs_ks_build_kohn_sham_matrix       120  7.0     0.03     0.03     5.28     6.79
 get_data                         80408 11.0     1.28     6.65     1.40     6.78
 trafo_rs_to_ikp                   6070  8.1     1.05     1.12     6.66     6.78
 dbt_tas_merge_alltoall         6524552 16.1     3.22     3.76     5.83     6.58
 cp_cfm_heevd                      2501  8.0     0.00     0.00     6.30     6.48
 cp_cfm_heevd_base                 2501  9.0     6.29     6.48     6.29     6.48
 rebuild_ks_matrix                  117  6.0     0.00     0.00     4.88     6.35
 dbt_tas_merge_communicate_buff 6524552 16.1     3.52     3.85     5.69     6.30
 mp_waitany                       43862 11.5     5.72     6.29     5.72     6.29
 sum_up_and_integrate               120  8.0     0.00     0.00     4.74     6.24
 integrate_v_rspace                 120  9.0     0.00     0.00     4.74     6.24
 cp_cfm_geeig_canon                 724  7.0     0.00     0.00     5.59     5.61
 mp_sum_dv                        48624  8.9     4.52     5.59     4.52     5.59
 get_Minv_Vtr_Minv_R                  1  8.0     0.00     0.00     5.41     5.42
 dbcsr_merge_all                 479437 11.6     3.11     3.42     4.43     4.95
 rsmat_to_kp                       2172  7.3     0.02     0.02     4.91     4.94
 add_ikp_to_all_rs                 5555  8.0     0.92     0.95     4.44     4.61
 dbcsr_filter_anytype            393918 10.7     0.72     0.78     3.19     4.32
 potential_pw2rs                    120 10.0     0.00     0.00     4.26     4.27
 qs_rho_update_rho_low              118  5.0     0.00     0.00     4.20     4.20
 calculate_rho_elec                 118  6.0     0.00     0.00     4.20     4.20
 transfer_pw2rs                     481 11.0     0.00     0.00     4.15     4.15
 set_blocks                       48139 11.0     0.52     2.46     1.72     4.14
 transfer_rs2pw                     474  8.0     0.00     0.00     3.46     3.99
 density_rs2pw                      118  7.0     0.00     0.00     3.42     3.95
 transfer_rs2pw_500                 120  9.0     0.09     0.11     3.26     3.79
 abc_contract_xsmm               337412  9.0     3.47     3.77     3.47     3.77
 power                            11495  8.0     0.39     0.42     3.40     3.60
 trafo_V_xc_R_to_kp                   1  7.0     0.00     0.00     3.57     3.59
 setup_parallelization_Delta_R        1  7.0     0.00     0.00     3.52     3.52
 compute_n_tensor_ops_Delta_R         1  8.0     0.95     1.40     3.51     3.51
 diag_complex                     11495  9.0     3.01     3.23     3.01     3.23
 dbcsr_create_new               1224593  9.4     2.31     2.48     2.90     3.08
 transfer_pw2rs_500                 121 12.0     0.08     0.10     2.93     2.95
 dos_pdos_ldos                        1  5.0     0.00     0.00     2.91     2.94
 mp_bcast_iv                     809044  8.3     2.46     2.87     2.46     2.87
 compute_proj_mo_on_kind            724  6.0     0.01     0.01     2.69     2.69
 cp_cfm_geeig                      1053  7.0     0.00     0.00     2.36     2.65
 send_sizes_2                     80408 11.0     0.05     0.05     2.52     2.60
 build_2c_integrals                  34 10.0     0.03     1.43     0.08     2.55
 kpoint_set_mo_occupation           117  7.0     0.02     0.02     2.12     2.55
 dbcsr_iterator_start           2893091 10.5     1.77     1.88     2.26     2.41
 copy_fm_to_dbcsr_bc             148115 10.1     0.62     0.72     2.04     2.26
 write_kpoints_restart              117  5.0     0.00     0.07     2.21     2.23
 alloc_block_3c                       1  9.0     0.25     0.27     2.10     2.15
 mp_isend_im2                   8112326 12.6     0.07     1.96     0.07     1.96
 mp_sum_iv                           24  6.1     1.16     1.96     1.16     1.96
 grid_integrate_task_list           120 10.0     0.45     1.95     0.45     1.95
 dbcsr_destroy                  1101799  9.3     0.94     1.15     1.68     1.91
 grid_collocate_task_list           118  7.0     0.68     1.80     0.68     1.80
 comm_size                        48139 11.0     0.04     0.04     1.72     1.79
 dbcsr_work_create               826340 10.0     1.04     1.20     1.53     1.78
 rs_gather_matrices                 120 10.0     0.00     0.04     0.03     1.73
 -------------------------------------------------------------------------------

 The number of warnings for this run is : 1
 
 -------------------------------------------------------------------------------
  **** **** ******  **  PROGRAM ENDED AT                 2025-10-02 05:19:28.220
 ***** ** ***  *** **   PROGRAM RAN ON                                 n2lcn0151
 **    ****   ******    PROGRAM RAN BY                                  metdyn02
 ***** **    ** ** **   PROGRAM PROCESS ID                               1127782
  **** **  *******  **  PROGRAM STOPPED IN /scratch/hpc-prf-metdyn/metdyn02_Remi
                                           /14_hBN/aug-SZV-MOLOPT/GAPW/kgrid/24
