SIRIUS 7.7.0, git hash: https://api.github.com/repos/electronic-structure/SIRIUS/git/ref/tags/v7.7.0
 DBCSR| CPU Multiplication driver                                           BLAS (U)
 DBCSR| Multrec recursion limit                                              512 (U)
 DBCSR| Multiplication stack size                                           1000 (D)
 DBCSR| Maximum elements for images                                    UNLIMITED (U)
 DBCSR| Multiplicative factor virtual images                                   1 (U)
 DBCSR| Use multiplication densification                                       T (D)
 DBCSR| Multiplication size stacks                                             3 (U)
 DBCSR| Use memory pool for CPU allocation                                     F (U)
 DBCSR| Number of 3D layers                                               SINGLE (U)
 DBCSR| Use MPI memory allocation                                              F (U)
 DBCSR| Use RMA algorithm                                                      F (U)
 DBCSR| Use Communication thread                                               T (U)
 DBCSR| Communication thread load                                             30 (D)
 DBCSR| MPI: My process id                                                     0
 DBCSR| MPI: Number of processes                                             192
 DBCSR| OMP: Current number of threads                                        16
 DBCSR| OMP: Max number of threads                                            16
 DBCSR| Split modifier for TAS multiplication algorithm                  1.0E+00 (U)


  **** **** ******  **  PROGRAM STARTED AT               2025-10-14 10:43:45.645
 ***** ** ***  *** **   PROGRAM STARTED ON                               lcn1302
 **    ****   ******    PROGRAM STARTED BY                              metdyn02
 ***** **    ** ** **   PROGRAM PROCESS ID                               2820850
  **** **  *******  **  PROGRAM STARTED IN /scratch/hpc-prf-metdyn/metdyn02_Remi
                                           /03_hBN/aug-DZVP-MOLOPT

 CP2K| version string:                                       CP2K version 2025.2
 CP2K| source code revision number:                                  git:3158929
 CP2K| cp2kflags: omp libint fftw3 libxc libgrpp elpa parallel scalapack mpi_f08
 CP2K|             cosma xsmm plumed2 spglib sirius libvori libbqb libvdwxc hdf5
 CP2K| is freely available from                            https://www.cp2k.org/
 CP2K| Program compiled at                      Tue Sep 30 10:40:48 AM CEST 2025
 CP2K| Program compiled on                                                login1
 CP2K| Program compiled for                                                local
 CP2K| Data directory path    /opt/software/pc2/EB-SW/software/CP2K/2025.2-foss-
 CP2K| Input file name                                                    GW.inp

 GLOBAL| Force Environment number                                              1
 GLOBAL| Basis set file name                                        BASIS_MOLOPT
 GLOBAL| Potential file name                                  GTH_SOC_POTENTIALS
 GLOBAL| MM Potential file name                                     MM_POTENTIAL
 GLOBAL| Coordinate file name                                      __STD_INPUT__
 GLOBAL| Method name                                                        CP2K
 GLOBAL| Project name                                                        hBN
 GLOBAL| Run type                                                         ENERGY
 GLOBAL| FFT library                                                       FFTW3
 GLOBAL| Diagonalization library                                            ELPA
 GLOBAL| Cholesky decomposition library                                ScaLAPACK
 GLOBAL| DGEMM library                                                      BLAS
 GLOBAL| Minimum number of eigenvectors for ELPA usage                        16
 GLOBAL| Orthonormality check for eigenvectors                          DISABLED
 GLOBAL| Matrix multiplication library                                     COSMA
 GLOBAL| All-to-all communication in single precision                          F
 GLOBAL| FFTs using library dependent lengths                                  F
 GLOBAL| Grid backend                                                       AUTO
 GLOBAL| Global print level                                               MEDIUM
 GLOBAL| MPI I/O enabled                                                       T
 GLOBAL| Total number of message passing processes                           192
 GLOBAL| Number of threads for this process                                   16
 GLOBAL| This output is from process                                           0
 GLOBAL| OpenMP stack size per thread (OMP_STACKSIZE)                    default
 GLOBAL| CPU model name                          AMD EPYC 9655 96-Core Processor
 GLOBAL| CPUID                                                              1003

 MEMORY| system memory details [Kb]
 MEMORY|                        rank 0           min           max       average
 MEMORY| MemTotal           1583759312    1583759264    1583759352    1583759299
 MEMORY| MemFree            1559793004    1559586852    1560337476    1559925300
 MEMORY| Buffers                  1896          1856          9128          2787
 MEMORY| Cached                 737964        692452        935472        750034
 MEMORY| Slab                  1198176       1151768       1242396       1205888
 MEMORY| SReclaimable           192024        175480        237156        206049
 MEMORY| MemLikelyFree      1560724888    1560587016    1561213508    1560884172


 *** Fundamental physical constants (SI units) ***

 *** Literature: B. J. Mohr and B. N. Taylor,
 ***             CODATA recommended values of the fundamental physical
 ***             constants: 2006, Web Version 5.1
 ***             http://physics.nist.gov/constants

 Speed of light in vacuum [m/s]                             2.99792458000000E+08
 Magnetic constant or permeability of vacuum [N/A**2]       1.25663706143592E-06
 Electric constant or permittivity of vacuum [F/m]          8.85418781762039E-12
 Planck constant (h) [J*s]                                  6.62606896000000E-34
 Planck constant (h-bar) [J*s]                              1.05457162825177E-34
 Elementary charge [C]                                      1.60217648700000E-19
 Electron mass [kg]                                         9.10938215000000E-31
 Electron g factor [ ]                                     -2.00231930436220E+00
 Proton mass [kg]                                           1.67262163700000E-27
 Fine-structure constant                                    7.29735253760000E-03
 Rydberg constant [1/m]                                     1.09737315685270E+07
 Avogadro constant [1/mol]                                  6.02214179000000E+23
 Boltzmann constant [J/K]                                   1.38065040000000E-23
 Atomic mass unit [kg]                                      1.66053878200000E-27
 Bohr radius [m]                                            5.29177208590000E-11

 *** Conversion factors ***

 [u] -> [a.u.]                                              1.82288848426455E+03
 [Angstrom] -> [Bohr] = [a.u.]                              1.88972613288564E+00
 [a.u.] = [Bohr] -> [Angstrom]                              5.29177208590000E-01
 [a.u.] -> [s]                                              2.41888432650478E-17
 [a.u.] -> [fs]                                             2.41888432650478E-02
 [a.u.] -> [J]                                              4.35974393937059E-18
 [a.u.] -> [N]                                              8.23872205491840E-08
 [a.u.] -> [K]                                              3.15774647902944E+05
 [a.u.] -> [kJ/mol]                                         2.62549961709828E+03
 [a.u.] -> [kcal/mol]                                       6.27509468713739E+02
 [a.u.] -> [Pa]                                             2.94210107994716E+13
 [a.u.] -> [bar]                                            2.94210107994716E+08
 [a.u.] -> [atm]                                            2.90362800883016E+08
 [a.u.] -> [eV]                                             2.72113838565563E+01
 [a.u.] -> [Hz]                                             6.57968392072181E+15
 [a.u.] -> [1/cm] (wave numbers)                            2.19474631370540E+05
 [a.u./Bohr**2] -> [1/cm]                                   5.14048714338585E+03
 

 CELL_TOP| Volume [angstrom^3]:                                        81.840700
 CELL_TOP| Vector a [angstrom     2.510     0.000     0.000   |a| =     2.510000
 CELL_TOP| Vector b [angstrom    -1.255     2.174     0.000   |b| =     2.510000
 CELL_TOP| Vector c [angstrom     0.000     0.000    15.000   |c| =    15.000000
 CELL_TOP| Angle (b,c), alpha [degree]:                                90.000000
 CELL_TOP| Angle (a,c), beta  [degree]:                                90.000000
 CELL_TOP| Angle (a,b), gamma [degree]:                               120.000000
 CELL_TOP| Numerically orthorhombic:                                          NO
 CELL_TOP| Periodicity                                                        XY

 GENERATE|  Preliminary Number of Bonds generated:                             0
 GENERATE|  Achieved consistency in connectivity generation.

 CELL| Volume [angstrom^3]:                                            81.840700
 CELL| Vector a [angstrom]:       2.510     0.000     0.000   |a| =     2.510000
 CELL| Vector b [angstrom]:      -1.255     2.174     0.000   |b| =     2.510000
 CELL| Vector c [angstrom]:       0.000     0.000    15.000   |c| =    15.000000
 CELL| Angle (b,c), alpha [degree]:                                    90.000000
 CELL| Angle (a,c), beta  [degree]:                                    90.000000
 CELL| Angle (a,b), gamma [degree]:                                   120.000000
 CELL| Numerically orthorhombic:                                              NO
 CELL| Periodicity                                                            XY

 CELL_REF| Volume [angstrom^3]:                                        81.840700
 CELL_REF| Vector a [angstrom     2.510     0.000     0.000   |a| =     2.510000
 CELL_REF| Vector b [angstrom    -1.255     2.174     0.000   |b| =     2.510000
 CELL_REF| Vector c [angstrom     0.000     0.000    15.000   |c| =    15.000000
 CELL_REF| Angle (b,c), alpha [degree]:                                90.000000
 CELL_REF| Angle (a,c), beta  [degree]:                                90.000000
 CELL_REF| Angle (a,b), gamma [degree]:                               120.000000
 CELL_REF| Numerically orthorhombic:                                          NO
 CELL_REF| Periodicity                                                        XY

 *******************************************************************************
                                    Kpoints
 *******************************************************************************
 BRILLOUIN| K-point scheme                                        Monkhorst-Pack
 BRILLOUIN| K-Point grid                                            48   48    1
 BRILLOUIN| Accuracy in Symmetry determination                      0.100000E-05
 BRILLOUIN| K-Point point group symmetrization                               OFF
 BRILLOUIN| Wavefunction type                                            COMPLEX
 BRILLOUIN| List of Kpoints [2 Pi/Bohr]                                     1152
 BRILLOUIN| Number           Weight            X              Y              Z
 BRILLOUIN|     1           0.00087       -0.48958       -0.48958        0.00000
 BRILLOUIN|     2           0.00087       -0.48958       -0.46875        0.00000
 BRILLOUIN|     3           0.00087       -0.48958       -0.44792        0.00000
 BRILLOUIN|     4           0.00087       -0.48958       -0.42708        0.00000
 BRILLOUIN|     5           0.00087       -0.48958       -0.40625        0.00000
 BRILLOUIN|     6           0.00087       -0.48958       -0.38542        0.00000
 BRILLOUIN|     7           0.00087       -0.48958       -0.36458        0.00000
 BRILLOUIN|     8           0.00087       -0.48958       -0.34375        0.00000
 BRILLOUIN|     9           0.00087       -0.48958       -0.32292        0.00000
 BRILLOUIN|    10           0.00087       -0.48958       -0.30208        0.00000
 BRILLOUIN|    11           0.00087       -0.48958       -0.28125        0.00000
 BRILLOUIN|    12           0.00087       -0.48958       -0.26042        0.00000
 BRILLOUIN|    13           0.00087       -0.48958       -0.23958        0.00000
 BRILLOUIN|    14           0.00087       -0.48958       -0.21875        0.00000
 BRILLOUIN|    15           0.00087       -0.48958       -0.19792        0.00000
 BRILLOUIN|    16           0.00087       -0.48958       -0.17708        0.00000
 BRILLOUIN|    17           0.00087       -0.48958       -0.15625        0.00000
 BRILLOUIN|    18           0.00087       -0.48958       -0.13542        0.00000
 BRILLOUIN|    19           0.00087       -0.48958       -0.11458        0.00000
 BRILLOUIN|    20           0.00087       -0.48958       -0.09375        0.00000
 BRILLOUIN|    21           0.00087       -0.48958       -0.07292        0.00000
 BRILLOUIN|    22           0.00087       -0.48958       -0.05208        0.00000
 BRILLOUIN|    23           0.00087       -0.48958       -0.03125        0.00000
 BRILLOUIN|    24           0.00087       -0.48958       -0.01042        0.00000
 BRILLOUIN|    25           0.00087       -0.48958        0.01042        0.00000
 BRILLOUIN|    26           0.00087       -0.48958        0.03125        0.00000
 BRILLOUIN|    27           0.00087       -0.48958        0.05208        0.00000
 BRILLOUIN|    28           0.00087       -0.48958        0.07292        0.00000
 BRILLOUIN|    29           0.00087       -0.48958        0.09375        0.00000
 BRILLOUIN|    30           0.00087       -0.48958        0.11458        0.00000
 BRILLOUIN|    31           0.00087       -0.48958        0.13542        0.00000
 BRILLOUIN|    32           0.00087       -0.48958        0.15625        0.00000
 BRILLOUIN|    33           0.00087       -0.48958        0.17708        0.00000
 BRILLOUIN|    34           0.00087       -0.48958        0.19792        0.00000
 BRILLOUIN|    35           0.00087       -0.48958        0.21875        0.00000
 BRILLOUIN|    36           0.00087       -0.48958        0.23958        0.00000
 BRILLOUIN|    37           0.00087       -0.48958        0.26042        0.00000
 BRILLOUIN|    38           0.00087       -0.48958        0.28125        0.00000
 BRILLOUIN|    39           0.00087       -0.48958        0.30208        0.00000
 BRILLOUIN|    40           0.00087       -0.48958        0.32292        0.00000
 BRILLOUIN|    41           0.00087       -0.48958        0.34375        0.00000
 BRILLOUIN|    42           0.00087       -0.48958        0.36458        0.00000
 BRILLOUIN|    43           0.00087       -0.48958        0.38542        0.00000
 BRILLOUIN|    44           0.00087       -0.48958        0.40625        0.00000
 BRILLOUIN|    45           0.00087       -0.48958        0.42708        0.00000
 BRILLOUIN|    46           0.00087       -0.48958        0.44792        0.00000
 BRILLOUIN|    47           0.00087       -0.48958        0.46875        0.00000
 BRILLOUIN|    48           0.00087       -0.48958        0.48958        0.00000
 BRILLOUIN|    49           0.00087       -0.46875       -0.48958        0.00000
 BRILLOUIN|    50           0.00087       -0.46875       -0.46875        0.00000
 BRILLOUIN|    51           0.00087       -0.46875       -0.44792        0.00000
 BRILLOUIN|    52           0.00087       -0.46875       -0.42708        0.00000
 BRILLOUIN|    53           0.00087       -0.46875       -0.40625        0.00000
 BRILLOUIN|    54           0.00087       -0.46875       -0.38542        0.00000
 BRILLOUIN|    55           0.00087       -0.46875       -0.36458        0.00000
 BRILLOUIN|    56           0.00087       -0.46875       -0.34375        0.00000
 BRILLOUIN|    57           0.00087       -0.46875       -0.32292        0.00000
 BRILLOUIN|    58           0.00087       -0.46875       -0.30208        0.00000
 BRILLOUIN|    59           0.00087       -0.46875       -0.28125        0.00000
 BRILLOUIN|    60           0.00087       -0.46875       -0.26042        0.00000
 BRILLOUIN|    61           0.00087       -0.46875       -0.23958        0.00000
 BRILLOUIN|    62           0.00087       -0.46875       -0.21875        0.00000
 BRILLOUIN|    63           0.00087       -0.46875       -0.19792        0.00000
 BRILLOUIN|    64           0.00087       -0.46875       -0.17708        0.00000
 BRILLOUIN|    65           0.00087       -0.46875       -0.15625        0.00000
 BRILLOUIN|    66           0.00087       -0.46875       -0.13542        0.00000
 BRILLOUIN|    67           0.00087       -0.46875       -0.11458        0.00000
 BRILLOUIN|    68           0.00087       -0.46875       -0.09375        0.00000
 BRILLOUIN|    69           0.00087       -0.46875       -0.07292        0.00000
 BRILLOUIN|    70           0.00087       -0.46875       -0.05208        0.00000
 BRILLOUIN|    71           0.00087       -0.46875       -0.03125        0.00000
 BRILLOUIN|    72           0.00087       -0.46875       -0.01042        0.00000
 BRILLOUIN|    73           0.00087       -0.46875        0.01042        0.00000
 BRILLOUIN|    74           0.00087       -0.46875        0.03125        0.00000
 BRILLOUIN|    75           0.00087       -0.46875        0.05208        0.00000
 BRILLOUIN|    76           0.00087       -0.46875        0.07292        0.00000
 BRILLOUIN|    77           0.00087       -0.46875        0.09375        0.00000
 BRILLOUIN|    78           0.00087       -0.46875        0.11458        0.00000
 BRILLOUIN|    79           0.00087       -0.46875        0.13542        0.00000
 BRILLOUIN|    80           0.00087       -0.46875        0.15625        0.00000
 BRILLOUIN|    81           0.00087       -0.46875        0.17708        0.00000
 BRILLOUIN|    82           0.00087       -0.46875        0.19792        0.00000
 BRILLOUIN|    83           0.00087       -0.46875        0.21875        0.00000
 BRILLOUIN|    84           0.00087       -0.46875        0.23958        0.00000
 BRILLOUIN|    85           0.00087       -0.46875        0.26042        0.00000
 BRILLOUIN|    86           0.00087       -0.46875        0.28125        0.00000
 BRILLOUIN|    87           0.00087       -0.46875        0.30208        0.00000
 BRILLOUIN|    88           0.00087       -0.46875        0.32292        0.00000
 BRILLOUIN|    89           0.00087       -0.46875        0.34375        0.00000
 BRILLOUIN|    90           0.00087       -0.46875        0.36458        0.00000
 BRILLOUIN|    91           0.00087       -0.46875        0.38542        0.00000
 BRILLOUIN|    92           0.00087       -0.46875        0.40625        0.00000
 BRILLOUIN|    93           0.00087       -0.46875        0.42708        0.00000
 BRILLOUIN|    94           0.00087       -0.46875        0.44792        0.00000
 BRILLOUIN|    95           0.00087       -0.46875        0.46875        0.00000
 BRILLOUIN|    96           0.00087       -0.46875        0.48958        0.00000
 BRILLOUIN|    97           0.00087       -0.44792       -0.48958        0.00000
 BRILLOUIN|    98           0.00087       -0.44792       -0.46875        0.00000
 BRILLOUIN|    99           0.00087       -0.44792       -0.44792        0.00000
 BRILLOUIN|   100           0.00087       -0.44792       -0.42708        0.00000
 BRILLOUIN|   101           0.00087       -0.44792       -0.40625        0.00000
 BRILLOUIN|   102           0.00087       -0.44792       -0.38542        0.00000
 BRILLOUIN|   103           0.00087       -0.44792       -0.36458        0.00000
 BRILLOUIN|   104           0.00087       -0.44792       -0.34375        0.00000
 BRILLOUIN|   105           0.00087       -0.44792       -0.32292        0.00000
 BRILLOUIN|   106           0.00087       -0.44792       -0.30208        0.00000
 BRILLOUIN|   107           0.00087       -0.44792       -0.28125        0.00000
 BRILLOUIN|   108           0.00087       -0.44792       -0.26042        0.00000
 BRILLOUIN|   109           0.00087       -0.44792       -0.23958        0.00000
 BRILLOUIN|   110           0.00087       -0.44792       -0.21875        0.00000
 BRILLOUIN|   111           0.00087       -0.44792       -0.19792        0.00000
 BRILLOUIN|   112           0.00087       -0.44792       -0.17708        0.00000
 BRILLOUIN|   113           0.00087       -0.44792       -0.15625        0.00000
 BRILLOUIN|   114           0.00087       -0.44792       -0.13542        0.00000
 BRILLOUIN|   115           0.00087       -0.44792       -0.11458        0.00000
 BRILLOUIN|   116           0.00087       -0.44792       -0.09375        0.00000
 BRILLOUIN|   117           0.00087       -0.44792       -0.07292        0.00000
 BRILLOUIN|   118           0.00087       -0.44792       -0.05208        0.00000
 BRILLOUIN|   119           0.00087       -0.44792       -0.03125        0.00000
 BRILLOUIN|   120           0.00087       -0.44792       -0.01042        0.00000
 BRILLOUIN|   121           0.00087       -0.44792        0.01042        0.00000
 BRILLOUIN|   122           0.00087       -0.44792        0.03125        0.00000
 BRILLOUIN|   123           0.00087       -0.44792        0.05208        0.00000
 BRILLOUIN|   124           0.00087       -0.44792        0.07292        0.00000
 BRILLOUIN|   125           0.00087       -0.44792        0.09375        0.00000
 BRILLOUIN|   126           0.00087       -0.44792        0.11458        0.00000
 BRILLOUIN|   127           0.00087       -0.44792        0.13542        0.00000
 BRILLOUIN|   128           0.00087       -0.44792        0.15625        0.00000
 BRILLOUIN|   129           0.00087       -0.44792        0.17708        0.00000
 BRILLOUIN|   130           0.00087       -0.44792        0.19792        0.00000
 BRILLOUIN|   131           0.00087       -0.44792        0.21875        0.00000
 BRILLOUIN|   132           0.00087       -0.44792        0.23958        0.00000
 BRILLOUIN|   133           0.00087       -0.44792        0.26042        0.00000
 BRILLOUIN|   134           0.00087       -0.44792        0.28125        0.00000
 BRILLOUIN|   135           0.00087       -0.44792        0.30208        0.00000
 BRILLOUIN|   136           0.00087       -0.44792        0.32292        0.00000
 BRILLOUIN|   137           0.00087       -0.44792        0.34375        0.00000
 BRILLOUIN|   138           0.00087       -0.44792        0.36458        0.00000
 BRILLOUIN|   139           0.00087       -0.44792        0.38542        0.00000
 BRILLOUIN|   140           0.00087       -0.44792        0.40625        0.00000
 BRILLOUIN|   141           0.00087       -0.44792        0.42708        0.00000
 BRILLOUIN|   142           0.00087       -0.44792        0.44792        0.00000
 BRILLOUIN|   143           0.00087       -0.44792        0.46875        0.00000
 BRILLOUIN|   144           0.00087       -0.44792        0.48958        0.00000
 BRILLOUIN|   145           0.00087       -0.42708       -0.48958        0.00000
 BRILLOUIN|   146           0.00087       -0.42708       -0.46875        0.00000
 BRILLOUIN|   147           0.00087       -0.42708       -0.44792        0.00000
 BRILLOUIN|   148           0.00087       -0.42708       -0.42708        0.00000
 BRILLOUIN|   149           0.00087       -0.42708       -0.40625        0.00000
 BRILLOUIN|   150           0.00087       -0.42708       -0.38542        0.00000
 BRILLOUIN|   151           0.00087       -0.42708       -0.36458        0.00000
 BRILLOUIN|   152           0.00087       -0.42708       -0.34375        0.00000
 BRILLOUIN|   153           0.00087       -0.42708       -0.32292        0.00000
 BRILLOUIN|   154           0.00087       -0.42708       -0.30208        0.00000
 BRILLOUIN|   155           0.00087       -0.42708       -0.28125        0.00000
 BRILLOUIN|   156           0.00087       -0.42708       -0.26042        0.00000
 BRILLOUIN|   157           0.00087       -0.42708       -0.23958        0.00000
 BRILLOUIN|   158           0.00087       -0.42708       -0.21875        0.00000
 BRILLOUIN|   159           0.00087       -0.42708       -0.19792        0.00000
 BRILLOUIN|   160           0.00087       -0.42708       -0.17708        0.00000
 BRILLOUIN|   161           0.00087       -0.42708       -0.15625        0.00000
 BRILLOUIN|   162           0.00087       -0.42708       -0.13542        0.00000
 BRILLOUIN|   163           0.00087       -0.42708       -0.11458        0.00000
 BRILLOUIN|   164           0.00087       -0.42708       -0.09375        0.00000
 BRILLOUIN|   165           0.00087       -0.42708       -0.07292        0.00000
 BRILLOUIN|   166           0.00087       -0.42708       -0.05208        0.00000
 BRILLOUIN|   167           0.00087       -0.42708       -0.03125        0.00000
 BRILLOUIN|   168           0.00087       -0.42708       -0.01042        0.00000
 BRILLOUIN|   169           0.00087       -0.42708        0.01042        0.00000
 BRILLOUIN|   170           0.00087       -0.42708        0.03125        0.00000
 BRILLOUIN|   171           0.00087       -0.42708        0.05208        0.00000
 BRILLOUIN|   172           0.00087       -0.42708        0.07292        0.00000
 BRILLOUIN|   173           0.00087       -0.42708        0.09375        0.00000
 BRILLOUIN|   174           0.00087       -0.42708        0.11458        0.00000
 BRILLOUIN|   175           0.00087       -0.42708        0.13542        0.00000
 BRILLOUIN|   176           0.00087       -0.42708        0.15625        0.00000
 BRILLOUIN|   177           0.00087       -0.42708        0.17708        0.00000
 BRILLOUIN|   178           0.00087       -0.42708        0.19792        0.00000
 BRILLOUIN|   179           0.00087       -0.42708        0.21875        0.00000
 BRILLOUIN|   180           0.00087       -0.42708        0.23958        0.00000
 BRILLOUIN|   181           0.00087       -0.42708        0.26042        0.00000
 BRILLOUIN|   182           0.00087       -0.42708        0.28125        0.00000
 BRILLOUIN|   183           0.00087       -0.42708        0.30208        0.00000
 BRILLOUIN|   184           0.00087       -0.42708        0.32292        0.00000
 BRILLOUIN|   185           0.00087       -0.42708        0.34375        0.00000
 BRILLOUIN|   186           0.00087       -0.42708        0.36458        0.00000
 BRILLOUIN|   187           0.00087       -0.42708        0.38542        0.00000
 BRILLOUIN|   188           0.00087       -0.42708        0.40625        0.00000
 BRILLOUIN|   189           0.00087       -0.42708        0.42708        0.00000
 BRILLOUIN|   190           0.00087       -0.42708        0.44792        0.00000
 BRILLOUIN|   191           0.00087       -0.42708        0.46875        0.00000
 BRILLOUIN|   192           0.00087       -0.42708        0.48958        0.00000
 BRILLOUIN|   193           0.00087       -0.40625       -0.48958        0.00000
 BRILLOUIN|   194           0.00087       -0.40625       -0.46875        0.00000
 BRILLOUIN|   195           0.00087       -0.40625       -0.44792        0.00000
 BRILLOUIN|   196           0.00087       -0.40625       -0.42708        0.00000
 BRILLOUIN|   197           0.00087       -0.40625       -0.40625        0.00000
 BRILLOUIN|   198           0.00087       -0.40625       -0.38542        0.00000
 BRILLOUIN|   199           0.00087       -0.40625       -0.36458        0.00000
 BRILLOUIN|   200           0.00087       -0.40625       -0.34375        0.00000
 BRILLOUIN|   201           0.00087       -0.40625       -0.32292        0.00000
 BRILLOUIN|   202           0.00087       -0.40625       -0.30208        0.00000
 BRILLOUIN|   203           0.00087       -0.40625       -0.28125        0.00000
 BRILLOUIN|   204           0.00087       -0.40625       -0.26042        0.00000
 BRILLOUIN|   205           0.00087       -0.40625       -0.23958        0.00000
 BRILLOUIN|   206           0.00087       -0.40625       -0.21875        0.00000
 BRILLOUIN|   207           0.00087       -0.40625       -0.19792        0.00000
 BRILLOUIN|   208           0.00087       -0.40625       -0.17708        0.00000
 BRILLOUIN|   209           0.00087       -0.40625       -0.15625        0.00000
 BRILLOUIN|   210           0.00087       -0.40625       -0.13542        0.00000
 BRILLOUIN|   211           0.00087       -0.40625       -0.11458        0.00000
 BRILLOUIN|   212           0.00087       -0.40625       -0.09375        0.00000
 BRILLOUIN|   213           0.00087       -0.40625       -0.07292        0.00000
 BRILLOUIN|   214           0.00087       -0.40625       -0.05208        0.00000
 BRILLOUIN|   215           0.00087       -0.40625       -0.03125        0.00000
 BRILLOUIN|   216           0.00087       -0.40625       -0.01042        0.00000
 BRILLOUIN|   217           0.00087       -0.40625        0.01042        0.00000
 BRILLOUIN|   218           0.00087       -0.40625        0.03125        0.00000
 BRILLOUIN|   219           0.00087       -0.40625        0.05208        0.00000
 BRILLOUIN|   220           0.00087       -0.40625        0.07292        0.00000
 BRILLOUIN|   221           0.00087       -0.40625        0.09375        0.00000
 BRILLOUIN|   222           0.00087       -0.40625        0.11458        0.00000
 BRILLOUIN|   223           0.00087       -0.40625        0.13542        0.00000
 BRILLOUIN|   224           0.00087       -0.40625        0.15625        0.00000
 BRILLOUIN|   225           0.00087       -0.40625        0.17708        0.00000
 BRILLOUIN|   226           0.00087       -0.40625        0.19792        0.00000
 BRILLOUIN|   227           0.00087       -0.40625        0.21875        0.00000
 BRILLOUIN|   228           0.00087       -0.40625        0.23958        0.00000
 BRILLOUIN|   229           0.00087       -0.40625        0.26042        0.00000
 BRILLOUIN|   230           0.00087       -0.40625        0.28125        0.00000
 BRILLOUIN|   231           0.00087       -0.40625        0.30208        0.00000
 BRILLOUIN|   232           0.00087       -0.40625        0.32292        0.00000
 BRILLOUIN|   233           0.00087       -0.40625        0.34375        0.00000
 BRILLOUIN|   234           0.00087       -0.40625        0.36458        0.00000
 BRILLOUIN|   235           0.00087       -0.40625        0.38542        0.00000
 BRILLOUIN|   236           0.00087       -0.40625        0.40625        0.00000
 BRILLOUIN|   237           0.00087       -0.40625        0.42708        0.00000
 BRILLOUIN|   238           0.00087       -0.40625        0.44792        0.00000
 BRILLOUIN|   239           0.00087       -0.40625        0.46875        0.00000
 BRILLOUIN|   240           0.00087       -0.40625        0.48958        0.00000
 BRILLOUIN|   241           0.00087       -0.38542       -0.48958        0.00000
 BRILLOUIN|   242           0.00087       -0.38542       -0.46875        0.00000
 BRILLOUIN|   243           0.00087       -0.38542       -0.44792        0.00000
 BRILLOUIN|   244           0.00087       -0.38542       -0.42708        0.00000
 BRILLOUIN|   245           0.00087       -0.38542       -0.40625        0.00000
 BRILLOUIN|   246           0.00087       -0.38542       -0.38542        0.00000
 BRILLOUIN|   247           0.00087       -0.38542       -0.36458        0.00000
 BRILLOUIN|   248           0.00087       -0.38542       -0.34375        0.00000
 BRILLOUIN|   249           0.00087       -0.38542       -0.32292        0.00000
 BRILLOUIN|   250           0.00087       -0.38542       -0.30208        0.00000
 BRILLOUIN|   251           0.00087       -0.38542       -0.28125        0.00000
 BRILLOUIN|   252           0.00087       -0.38542       -0.26042        0.00000
 BRILLOUIN|   253           0.00087       -0.38542       -0.23958        0.00000
 BRILLOUIN|   254           0.00087       -0.38542       -0.21875        0.00000
 BRILLOUIN|   255           0.00087       -0.38542       -0.19792        0.00000
 BRILLOUIN|   256           0.00087       -0.38542       -0.17708        0.00000
 BRILLOUIN|   257           0.00087       -0.38542       -0.15625        0.00000
 BRILLOUIN|   258           0.00087       -0.38542       -0.13542        0.00000
 BRILLOUIN|   259           0.00087       -0.38542       -0.11458        0.00000
 BRILLOUIN|   260           0.00087       -0.38542       -0.09375        0.00000
 BRILLOUIN|   261           0.00087       -0.38542       -0.07292        0.00000
 BRILLOUIN|   262           0.00087       -0.38542       -0.05208        0.00000
 BRILLOUIN|   263           0.00087       -0.38542       -0.03125        0.00000
 BRILLOUIN|   264           0.00087       -0.38542       -0.01042        0.00000
 BRILLOUIN|   265           0.00087       -0.38542        0.01042        0.00000
 BRILLOUIN|   266           0.00087       -0.38542        0.03125        0.00000
 BRILLOUIN|   267           0.00087       -0.38542        0.05208        0.00000
 BRILLOUIN|   268           0.00087       -0.38542        0.07292        0.00000
 BRILLOUIN|   269           0.00087       -0.38542        0.09375        0.00000
 BRILLOUIN|   270           0.00087       -0.38542        0.11458        0.00000
 BRILLOUIN|   271           0.00087       -0.38542        0.13542        0.00000
 BRILLOUIN|   272           0.00087       -0.38542        0.15625        0.00000
 BRILLOUIN|   273           0.00087       -0.38542        0.17708        0.00000
 BRILLOUIN|   274           0.00087       -0.38542        0.19792        0.00000
 BRILLOUIN|   275           0.00087       -0.38542        0.21875        0.00000
 BRILLOUIN|   276           0.00087       -0.38542        0.23958        0.00000
 BRILLOUIN|   277           0.00087       -0.38542        0.26042        0.00000
 BRILLOUIN|   278           0.00087       -0.38542        0.28125        0.00000
 BRILLOUIN|   279           0.00087       -0.38542        0.30208        0.00000
 BRILLOUIN|   280           0.00087       -0.38542        0.32292        0.00000
 BRILLOUIN|   281           0.00087       -0.38542        0.34375        0.00000
 BRILLOUIN|   282           0.00087       -0.38542        0.36458        0.00000
 BRILLOUIN|   283           0.00087       -0.38542        0.38542        0.00000
 BRILLOUIN|   284           0.00087       -0.38542        0.40625        0.00000
 BRILLOUIN|   285           0.00087       -0.38542        0.42708        0.00000
 BRILLOUIN|   286           0.00087       -0.38542        0.44792        0.00000
 BRILLOUIN|   287           0.00087       -0.38542        0.46875        0.00000
 BRILLOUIN|   288           0.00087       -0.38542        0.48958        0.00000
 BRILLOUIN|   289           0.00087       -0.36458       -0.48958        0.00000
 BRILLOUIN|   290           0.00087       -0.36458       -0.46875        0.00000
 BRILLOUIN|   291           0.00087       -0.36458       -0.44792        0.00000
 BRILLOUIN|   292           0.00087       -0.36458       -0.42708        0.00000
 BRILLOUIN|   293           0.00087       -0.36458       -0.40625        0.00000
 BRILLOUIN|   294           0.00087       -0.36458       -0.38542        0.00000
 BRILLOUIN|   295           0.00087       -0.36458       -0.36458        0.00000
 BRILLOUIN|   296           0.00087       -0.36458       -0.34375        0.00000
 BRILLOUIN|   297           0.00087       -0.36458       -0.32292        0.00000
 BRILLOUIN|   298           0.00087       -0.36458       -0.30208        0.00000
 BRILLOUIN|   299           0.00087       -0.36458       -0.28125        0.00000
 BRILLOUIN|   300           0.00087       -0.36458       -0.26042        0.00000
 BRILLOUIN|   301           0.00087       -0.36458       -0.23958        0.00000
 BRILLOUIN|   302           0.00087       -0.36458       -0.21875        0.00000
 BRILLOUIN|   303           0.00087       -0.36458       -0.19792        0.00000
 BRILLOUIN|   304           0.00087       -0.36458       -0.17708        0.00000
 BRILLOUIN|   305           0.00087       -0.36458       -0.15625        0.00000
 BRILLOUIN|   306           0.00087       -0.36458       -0.13542        0.00000
 BRILLOUIN|   307           0.00087       -0.36458       -0.11458        0.00000
 BRILLOUIN|   308           0.00087       -0.36458       -0.09375        0.00000
 BRILLOUIN|   309           0.00087       -0.36458       -0.07292        0.00000
 BRILLOUIN|   310           0.00087       -0.36458       -0.05208        0.00000
 BRILLOUIN|   311           0.00087       -0.36458       -0.03125        0.00000
 BRILLOUIN|   312           0.00087       -0.36458       -0.01042        0.00000
 BRILLOUIN|   313           0.00087       -0.36458        0.01042        0.00000
 BRILLOUIN|   314           0.00087       -0.36458        0.03125        0.00000
 BRILLOUIN|   315           0.00087       -0.36458        0.05208        0.00000
 BRILLOUIN|   316           0.00087       -0.36458        0.07292        0.00000
 BRILLOUIN|   317           0.00087       -0.36458        0.09375        0.00000
 BRILLOUIN|   318           0.00087       -0.36458        0.11458        0.00000
 BRILLOUIN|   319           0.00087       -0.36458        0.13542        0.00000
 BRILLOUIN|   320           0.00087       -0.36458        0.15625        0.00000
 BRILLOUIN|   321           0.00087       -0.36458        0.17708        0.00000
 BRILLOUIN|   322           0.00087       -0.36458        0.19792        0.00000
 BRILLOUIN|   323           0.00087       -0.36458        0.21875        0.00000
 BRILLOUIN|   324           0.00087       -0.36458        0.23958        0.00000
 BRILLOUIN|   325           0.00087       -0.36458        0.26042        0.00000
 BRILLOUIN|   326           0.00087       -0.36458        0.28125        0.00000
 BRILLOUIN|   327           0.00087       -0.36458        0.30208        0.00000
 BRILLOUIN|   328           0.00087       -0.36458        0.32292        0.00000
 BRILLOUIN|   329           0.00087       -0.36458        0.34375        0.00000
 BRILLOUIN|   330           0.00087       -0.36458        0.36458        0.00000
 BRILLOUIN|   331           0.00087       -0.36458        0.38542        0.00000
 BRILLOUIN|   332           0.00087       -0.36458        0.40625        0.00000
 BRILLOUIN|   333           0.00087       -0.36458        0.42708        0.00000
 BRILLOUIN|   334           0.00087       -0.36458        0.44792        0.00000
 BRILLOUIN|   335           0.00087       -0.36458        0.46875        0.00000
 BRILLOUIN|   336           0.00087       -0.36458        0.48958        0.00000
 BRILLOUIN|   337           0.00087       -0.34375       -0.48958        0.00000
 BRILLOUIN|   338           0.00087       -0.34375       -0.46875        0.00000
 BRILLOUIN|   339           0.00087       -0.34375       -0.44792        0.00000
 BRILLOUIN|   340           0.00087       -0.34375       -0.42708        0.00000
 BRILLOUIN|   341           0.00087       -0.34375       -0.40625        0.00000
 BRILLOUIN|   342           0.00087       -0.34375       -0.38542        0.00000
 BRILLOUIN|   343           0.00087       -0.34375       -0.36458        0.00000
 BRILLOUIN|   344           0.00087       -0.34375       -0.34375        0.00000
 BRILLOUIN|   345           0.00087       -0.34375       -0.32292        0.00000
 BRILLOUIN|   346           0.00087       -0.34375       -0.30208        0.00000
 BRILLOUIN|   347           0.00087       -0.34375       -0.28125        0.00000
 BRILLOUIN|   348           0.00087       -0.34375       -0.26042        0.00000
 BRILLOUIN|   349           0.00087       -0.34375       -0.23958        0.00000
 BRILLOUIN|   350           0.00087       -0.34375       -0.21875        0.00000
 BRILLOUIN|   351           0.00087       -0.34375       -0.19792        0.00000
 BRILLOUIN|   352           0.00087       -0.34375       -0.17708        0.00000
 BRILLOUIN|   353           0.00087       -0.34375       -0.15625        0.00000
 BRILLOUIN|   354           0.00087       -0.34375       -0.13542        0.00000
 BRILLOUIN|   355           0.00087       -0.34375       -0.11458        0.00000
 BRILLOUIN|   356           0.00087       -0.34375       -0.09375        0.00000
 BRILLOUIN|   357           0.00087       -0.34375       -0.07292        0.00000
 BRILLOUIN|   358           0.00087       -0.34375       -0.05208        0.00000
 BRILLOUIN|   359           0.00087       -0.34375       -0.03125        0.00000
 BRILLOUIN|   360           0.00087       -0.34375       -0.01042        0.00000
 BRILLOUIN|   361           0.00087       -0.34375        0.01042        0.00000
 BRILLOUIN|   362           0.00087       -0.34375        0.03125        0.00000
 BRILLOUIN|   363           0.00087       -0.34375        0.05208        0.00000
 BRILLOUIN|   364           0.00087       -0.34375        0.07292        0.00000
 BRILLOUIN|   365           0.00087       -0.34375        0.09375        0.00000
 BRILLOUIN|   366           0.00087       -0.34375        0.11458        0.00000
 BRILLOUIN|   367           0.00087       -0.34375        0.13542        0.00000
 BRILLOUIN|   368           0.00087       -0.34375        0.15625        0.00000
 BRILLOUIN|   369           0.00087       -0.34375        0.17708        0.00000
 BRILLOUIN|   370           0.00087       -0.34375        0.19792        0.00000
 BRILLOUIN|   371           0.00087       -0.34375        0.21875        0.00000
 BRILLOUIN|   372           0.00087       -0.34375        0.23958        0.00000
 BRILLOUIN|   373           0.00087       -0.34375        0.26042        0.00000
 BRILLOUIN|   374           0.00087       -0.34375        0.28125        0.00000
 BRILLOUIN|   375           0.00087       -0.34375        0.30208        0.00000
 BRILLOUIN|   376           0.00087       -0.34375        0.32292        0.00000
 BRILLOUIN|   377           0.00087       -0.34375        0.34375        0.00000
 BRILLOUIN|   378           0.00087       -0.34375        0.36458        0.00000
 BRILLOUIN|   379           0.00087       -0.34375        0.38542        0.00000
 BRILLOUIN|   380           0.00087       -0.34375        0.40625        0.00000
 BRILLOUIN|   381           0.00087       -0.34375        0.42708        0.00000
 BRILLOUIN|   382           0.00087       -0.34375        0.44792        0.00000
 BRILLOUIN|   383           0.00087       -0.34375        0.46875        0.00000
 BRILLOUIN|   384           0.00087       -0.34375        0.48958        0.00000
 BRILLOUIN|   385           0.00087       -0.32292       -0.48958        0.00000
 BRILLOUIN|   386           0.00087       -0.32292       -0.46875        0.00000
 BRILLOUIN|   387           0.00087       -0.32292       -0.44792        0.00000
 BRILLOUIN|   388           0.00087       -0.32292       -0.42708        0.00000
 BRILLOUIN|   389           0.00087       -0.32292       -0.40625        0.00000
 BRILLOUIN|   390           0.00087       -0.32292       -0.38542        0.00000
 BRILLOUIN|   391           0.00087       -0.32292       -0.36458        0.00000
 BRILLOUIN|   392           0.00087       -0.32292       -0.34375        0.00000
 BRILLOUIN|   393           0.00087       -0.32292       -0.32292        0.00000
 BRILLOUIN|   394           0.00087       -0.32292       -0.30208        0.00000
 BRILLOUIN|   395           0.00087       -0.32292       -0.28125        0.00000
 BRILLOUIN|   396           0.00087       -0.32292       -0.26042        0.00000
 BRILLOUIN|   397           0.00087       -0.32292       -0.23958        0.00000
 BRILLOUIN|   398           0.00087       -0.32292       -0.21875        0.00000
 BRILLOUIN|   399           0.00087       -0.32292       -0.19792        0.00000
 BRILLOUIN|   400           0.00087       -0.32292       -0.17708        0.00000
 BRILLOUIN|   401           0.00087       -0.32292       -0.15625        0.00000
 BRILLOUIN|   402           0.00087       -0.32292       -0.13542        0.00000
 BRILLOUIN|   403           0.00087       -0.32292       -0.11458        0.00000
 BRILLOUIN|   404           0.00087       -0.32292       -0.09375        0.00000
 BRILLOUIN|   405           0.00087       -0.32292       -0.07292        0.00000
 BRILLOUIN|   406           0.00087       -0.32292       -0.05208        0.00000
 BRILLOUIN|   407           0.00087       -0.32292       -0.03125        0.00000
 BRILLOUIN|   408           0.00087       -0.32292       -0.01042        0.00000
 BRILLOUIN|   409           0.00087       -0.32292        0.01042        0.00000
 BRILLOUIN|   410           0.00087       -0.32292        0.03125        0.00000
 BRILLOUIN|   411           0.00087       -0.32292        0.05208        0.00000
 BRILLOUIN|   412           0.00087       -0.32292        0.07292        0.00000
 BRILLOUIN|   413           0.00087       -0.32292        0.09375        0.00000
 BRILLOUIN|   414           0.00087       -0.32292        0.11458        0.00000
 BRILLOUIN|   415           0.00087       -0.32292        0.13542        0.00000
 BRILLOUIN|   416           0.00087       -0.32292        0.15625        0.00000
 BRILLOUIN|   417           0.00087       -0.32292        0.17708        0.00000
 BRILLOUIN|   418           0.00087       -0.32292        0.19792        0.00000
 BRILLOUIN|   419           0.00087       -0.32292        0.21875        0.00000
 BRILLOUIN|   420           0.00087       -0.32292        0.23958        0.00000
 BRILLOUIN|   421           0.00087       -0.32292        0.26042        0.00000
 BRILLOUIN|   422           0.00087       -0.32292        0.28125        0.00000
 BRILLOUIN|   423           0.00087       -0.32292        0.30208        0.00000
 BRILLOUIN|   424           0.00087       -0.32292        0.32292        0.00000
 BRILLOUIN|   425           0.00087       -0.32292        0.34375        0.00000
 BRILLOUIN|   426           0.00087       -0.32292        0.36458        0.00000
 BRILLOUIN|   427           0.00087       -0.32292        0.38542        0.00000
 BRILLOUIN|   428           0.00087       -0.32292        0.40625        0.00000
 BRILLOUIN|   429           0.00087       -0.32292        0.42708        0.00000
 BRILLOUIN|   430           0.00087       -0.32292        0.44792        0.00000
 BRILLOUIN|   431           0.00087       -0.32292        0.46875        0.00000
 BRILLOUIN|   432           0.00087       -0.32292        0.48958        0.00000
 BRILLOUIN|   433           0.00087       -0.30208       -0.48958        0.00000
 BRILLOUIN|   434           0.00087       -0.30208       -0.46875        0.00000
 BRILLOUIN|   435           0.00087       -0.30208       -0.44792        0.00000
 BRILLOUIN|   436           0.00087       -0.30208       -0.42708        0.00000
 BRILLOUIN|   437           0.00087       -0.30208       -0.40625        0.00000
 BRILLOUIN|   438           0.00087       -0.30208       -0.38542        0.00000
 BRILLOUIN|   439           0.00087       -0.30208       -0.36458        0.00000
 BRILLOUIN|   440           0.00087       -0.30208       -0.34375        0.00000
 BRILLOUIN|   441           0.00087       -0.30208       -0.32292        0.00000
 BRILLOUIN|   442           0.00087       -0.30208       -0.30208        0.00000
 BRILLOUIN|   443           0.00087       -0.30208       -0.28125        0.00000
 BRILLOUIN|   444           0.00087       -0.30208       -0.26042        0.00000
 BRILLOUIN|   445           0.00087       -0.30208       -0.23958        0.00000
 BRILLOUIN|   446           0.00087       -0.30208       -0.21875        0.00000
 BRILLOUIN|   447           0.00087       -0.30208       -0.19792        0.00000
 BRILLOUIN|   448           0.00087       -0.30208       -0.17708        0.00000
 BRILLOUIN|   449           0.00087       -0.30208       -0.15625        0.00000
 BRILLOUIN|   450           0.00087       -0.30208       -0.13542        0.00000
 BRILLOUIN|   451           0.00087       -0.30208       -0.11458        0.00000
 BRILLOUIN|   452           0.00087       -0.30208       -0.09375        0.00000
 BRILLOUIN|   453           0.00087       -0.30208       -0.07292        0.00000
 BRILLOUIN|   454           0.00087       -0.30208       -0.05208        0.00000
 BRILLOUIN|   455           0.00087       -0.30208       -0.03125        0.00000
 BRILLOUIN|   456           0.00087       -0.30208       -0.01042        0.00000
 BRILLOUIN|   457           0.00087       -0.30208        0.01042        0.00000
 BRILLOUIN|   458           0.00087       -0.30208        0.03125        0.00000
 BRILLOUIN|   459           0.00087       -0.30208        0.05208        0.00000
 BRILLOUIN|   460           0.00087       -0.30208        0.07292        0.00000
 BRILLOUIN|   461           0.00087       -0.30208        0.09375        0.00000
 BRILLOUIN|   462           0.00087       -0.30208        0.11458        0.00000
 BRILLOUIN|   463           0.00087       -0.30208        0.13542        0.00000
 BRILLOUIN|   464           0.00087       -0.30208        0.15625        0.00000
 BRILLOUIN|   465           0.00087       -0.30208        0.17708        0.00000
 BRILLOUIN|   466           0.00087       -0.30208        0.19792        0.00000
 BRILLOUIN|   467           0.00087       -0.30208        0.21875        0.00000
 BRILLOUIN|   468           0.00087       -0.30208        0.23958        0.00000
 BRILLOUIN|   469           0.00087       -0.30208        0.26042        0.00000
 BRILLOUIN|   470           0.00087       -0.30208        0.28125        0.00000
 BRILLOUIN|   471           0.00087       -0.30208        0.30208        0.00000
 BRILLOUIN|   472           0.00087       -0.30208        0.32292        0.00000
 BRILLOUIN|   473           0.00087       -0.30208        0.34375        0.00000
 BRILLOUIN|   474           0.00087       -0.30208        0.36458        0.00000
 BRILLOUIN|   475           0.00087       -0.30208        0.38542        0.00000
 BRILLOUIN|   476           0.00087       -0.30208        0.40625        0.00000
 BRILLOUIN|   477           0.00087       -0.30208        0.42708        0.00000
 BRILLOUIN|   478           0.00087       -0.30208        0.44792        0.00000
 BRILLOUIN|   479           0.00087       -0.30208        0.46875        0.00000
 BRILLOUIN|   480           0.00087       -0.30208        0.48958        0.00000
 BRILLOUIN|   481           0.00087       -0.28125       -0.48958        0.00000
 BRILLOUIN|   482           0.00087       -0.28125       -0.46875        0.00000
 BRILLOUIN|   483           0.00087       -0.28125       -0.44792        0.00000
 BRILLOUIN|   484           0.00087       -0.28125       -0.42708        0.00000
 BRILLOUIN|   485           0.00087       -0.28125       -0.40625        0.00000
 BRILLOUIN|   486           0.00087       -0.28125       -0.38542        0.00000
 BRILLOUIN|   487           0.00087       -0.28125       -0.36458        0.00000
 BRILLOUIN|   488           0.00087       -0.28125       -0.34375        0.00000
 BRILLOUIN|   489           0.00087       -0.28125       -0.32292        0.00000
 BRILLOUIN|   490           0.00087       -0.28125       -0.30208        0.00000
 BRILLOUIN|   491           0.00087       -0.28125       -0.28125        0.00000
 BRILLOUIN|   492           0.00087       -0.28125       -0.26042        0.00000
 BRILLOUIN|   493           0.00087       -0.28125       -0.23958        0.00000
 BRILLOUIN|   494           0.00087       -0.28125       -0.21875        0.00000
 BRILLOUIN|   495           0.00087       -0.28125       -0.19792        0.00000
 BRILLOUIN|   496           0.00087       -0.28125       -0.17708        0.00000
 BRILLOUIN|   497           0.00087       -0.28125       -0.15625        0.00000
 BRILLOUIN|   498           0.00087       -0.28125       -0.13542        0.00000
 BRILLOUIN|   499           0.00087       -0.28125       -0.11458        0.00000
 BRILLOUIN|   500           0.00087       -0.28125       -0.09375        0.00000
 BRILLOUIN|   501           0.00087       -0.28125       -0.07292        0.00000
 BRILLOUIN|   502           0.00087       -0.28125       -0.05208        0.00000
 BRILLOUIN|   503           0.00087       -0.28125       -0.03125        0.00000
 BRILLOUIN|   504           0.00087       -0.28125       -0.01042        0.00000
 BRILLOUIN|   505           0.00087       -0.28125        0.01042        0.00000
 BRILLOUIN|   506           0.00087       -0.28125        0.03125        0.00000
 BRILLOUIN|   507           0.00087       -0.28125        0.05208        0.00000
 BRILLOUIN|   508           0.00087       -0.28125        0.07292        0.00000
 BRILLOUIN|   509           0.00087       -0.28125        0.09375        0.00000
 BRILLOUIN|   510           0.00087       -0.28125        0.11458        0.00000
 BRILLOUIN|   511           0.00087       -0.28125        0.13542        0.00000
 BRILLOUIN|   512           0.00087       -0.28125        0.15625        0.00000
 BRILLOUIN|   513           0.00087       -0.28125        0.17708        0.00000
 BRILLOUIN|   514           0.00087       -0.28125        0.19792        0.00000
 BRILLOUIN|   515           0.00087       -0.28125        0.21875        0.00000
 BRILLOUIN|   516           0.00087       -0.28125        0.23958        0.00000
 BRILLOUIN|   517           0.00087       -0.28125        0.26042        0.00000
 BRILLOUIN|   518           0.00087       -0.28125        0.28125        0.00000
 BRILLOUIN|   519           0.00087       -0.28125        0.30208        0.00000
 BRILLOUIN|   520           0.00087       -0.28125        0.32292        0.00000
 BRILLOUIN|   521           0.00087       -0.28125        0.34375        0.00000
 BRILLOUIN|   522           0.00087       -0.28125        0.36458        0.00000
 BRILLOUIN|   523           0.00087       -0.28125        0.38542        0.00000
 BRILLOUIN|   524           0.00087       -0.28125        0.40625        0.00000
 BRILLOUIN|   525           0.00087       -0.28125        0.42708        0.00000
 BRILLOUIN|   526           0.00087       -0.28125        0.44792        0.00000
 BRILLOUIN|   527           0.00087       -0.28125        0.46875        0.00000
 BRILLOUIN|   528           0.00087       -0.28125        0.48958        0.00000
 BRILLOUIN|   529           0.00087       -0.26042       -0.48958        0.00000
 BRILLOUIN|   530           0.00087       -0.26042       -0.46875        0.00000
 BRILLOUIN|   531           0.00087       -0.26042       -0.44792        0.00000
 BRILLOUIN|   532           0.00087       -0.26042       -0.42708        0.00000
 BRILLOUIN|   533           0.00087       -0.26042       -0.40625        0.00000
 BRILLOUIN|   534           0.00087       -0.26042       -0.38542        0.00000
 BRILLOUIN|   535           0.00087       -0.26042       -0.36458        0.00000
 BRILLOUIN|   536           0.00087       -0.26042       -0.34375        0.00000
 BRILLOUIN|   537           0.00087       -0.26042       -0.32292        0.00000
 BRILLOUIN|   538           0.00087       -0.26042       -0.30208        0.00000
 BRILLOUIN|   539           0.00087       -0.26042       -0.28125        0.00000
 BRILLOUIN|   540           0.00087       -0.26042       -0.26042        0.00000
 BRILLOUIN|   541           0.00087       -0.26042       -0.23958        0.00000
 BRILLOUIN|   542           0.00087       -0.26042       -0.21875        0.00000
 BRILLOUIN|   543           0.00087       -0.26042       -0.19792        0.00000
 BRILLOUIN|   544           0.00087       -0.26042       -0.17708        0.00000
 BRILLOUIN|   545           0.00087       -0.26042       -0.15625        0.00000
 BRILLOUIN|   546           0.00087       -0.26042       -0.13542        0.00000
 BRILLOUIN|   547           0.00087       -0.26042       -0.11458        0.00000
 BRILLOUIN|   548           0.00087       -0.26042       -0.09375        0.00000
 BRILLOUIN|   549           0.00087       -0.26042       -0.07292        0.00000
 BRILLOUIN|   550           0.00087       -0.26042       -0.05208        0.00000
 BRILLOUIN|   551           0.00087       -0.26042       -0.03125        0.00000
 BRILLOUIN|   552           0.00087       -0.26042       -0.01042        0.00000
 BRILLOUIN|   553           0.00087       -0.26042        0.01042        0.00000
 BRILLOUIN|   554           0.00087       -0.26042        0.03125        0.00000
 BRILLOUIN|   555           0.00087       -0.26042        0.05208        0.00000
 BRILLOUIN|   556           0.00087       -0.26042        0.07292        0.00000
 BRILLOUIN|   557           0.00087       -0.26042        0.09375        0.00000
 BRILLOUIN|   558           0.00087       -0.26042        0.11458        0.00000
 BRILLOUIN|   559           0.00087       -0.26042        0.13542        0.00000
 BRILLOUIN|   560           0.00087       -0.26042        0.15625        0.00000
 BRILLOUIN|   561           0.00087       -0.26042        0.17708        0.00000
 BRILLOUIN|   562           0.00087       -0.26042        0.19792        0.00000
 BRILLOUIN|   563           0.00087       -0.26042        0.21875        0.00000
 BRILLOUIN|   564           0.00087       -0.26042        0.23958        0.00000
 BRILLOUIN|   565           0.00087       -0.26042        0.26042        0.00000
 BRILLOUIN|   566           0.00087       -0.26042        0.28125        0.00000
 BRILLOUIN|   567           0.00087       -0.26042        0.30208        0.00000
 BRILLOUIN|   568           0.00087       -0.26042        0.32292        0.00000
 BRILLOUIN|   569           0.00087       -0.26042        0.34375        0.00000
 BRILLOUIN|   570           0.00087       -0.26042        0.36458        0.00000
 BRILLOUIN|   571           0.00087       -0.26042        0.38542        0.00000
 BRILLOUIN|   572           0.00087       -0.26042        0.40625        0.00000
 BRILLOUIN|   573           0.00087       -0.26042        0.42708        0.00000
 BRILLOUIN|   574           0.00087       -0.26042        0.44792        0.00000
 BRILLOUIN|   575           0.00087       -0.26042        0.46875        0.00000
 BRILLOUIN|   576           0.00087       -0.26042        0.48958        0.00000
 BRILLOUIN|   577           0.00087       -0.23958       -0.48958        0.00000
 BRILLOUIN|   578           0.00087       -0.23958       -0.46875        0.00000
 BRILLOUIN|   579           0.00087       -0.23958       -0.44792        0.00000
 BRILLOUIN|   580           0.00087       -0.23958       -0.42708        0.00000
 BRILLOUIN|   581           0.00087       -0.23958       -0.40625        0.00000
 BRILLOUIN|   582           0.00087       -0.23958       -0.38542        0.00000
 BRILLOUIN|   583           0.00087       -0.23958       -0.36458        0.00000
 BRILLOUIN|   584           0.00087       -0.23958       -0.34375        0.00000
 BRILLOUIN|   585           0.00087       -0.23958       -0.32292        0.00000
 BRILLOUIN|   586           0.00087       -0.23958       -0.30208        0.00000
 BRILLOUIN|   587           0.00087       -0.23958       -0.28125        0.00000
 BRILLOUIN|   588           0.00087       -0.23958       -0.26042        0.00000
 BRILLOUIN|   589           0.00087       -0.23958       -0.23958        0.00000
 BRILLOUIN|   590           0.00087       -0.23958       -0.21875        0.00000
 BRILLOUIN|   591           0.00087       -0.23958       -0.19792        0.00000
 BRILLOUIN|   592           0.00087       -0.23958       -0.17708        0.00000
 BRILLOUIN|   593           0.00087       -0.23958       -0.15625        0.00000
 BRILLOUIN|   594           0.00087       -0.23958       -0.13542        0.00000
 BRILLOUIN|   595           0.00087       -0.23958       -0.11458        0.00000
 BRILLOUIN|   596           0.00087       -0.23958       -0.09375        0.00000
 BRILLOUIN|   597           0.00087       -0.23958       -0.07292        0.00000
 BRILLOUIN|   598           0.00087       -0.23958       -0.05208        0.00000
 BRILLOUIN|   599           0.00087       -0.23958       -0.03125        0.00000
 BRILLOUIN|   600           0.00087       -0.23958       -0.01042        0.00000
 BRILLOUIN|   601           0.00087       -0.23958        0.01042        0.00000
 BRILLOUIN|   602           0.00087       -0.23958        0.03125        0.00000
 BRILLOUIN|   603           0.00087       -0.23958        0.05208        0.00000
 BRILLOUIN|   604           0.00087       -0.23958        0.07292        0.00000
 BRILLOUIN|   605           0.00087       -0.23958        0.09375        0.00000
 BRILLOUIN|   606           0.00087       -0.23958        0.11458        0.00000
 BRILLOUIN|   607           0.00087       -0.23958        0.13542        0.00000
 BRILLOUIN|   608           0.00087       -0.23958        0.15625        0.00000
 BRILLOUIN|   609           0.00087       -0.23958        0.17708        0.00000
 BRILLOUIN|   610           0.00087       -0.23958        0.19792        0.00000
 BRILLOUIN|   611           0.00087       -0.23958        0.21875        0.00000
 BRILLOUIN|   612           0.00087       -0.23958        0.23958        0.00000
 BRILLOUIN|   613           0.00087       -0.23958        0.26042        0.00000
 BRILLOUIN|   614           0.00087       -0.23958        0.28125        0.00000
 BRILLOUIN|   615           0.00087       -0.23958        0.30208        0.00000
 BRILLOUIN|   616           0.00087       -0.23958        0.32292        0.00000
 BRILLOUIN|   617           0.00087       -0.23958        0.34375        0.00000
 BRILLOUIN|   618           0.00087       -0.23958        0.36458        0.00000
 BRILLOUIN|   619           0.00087       -0.23958        0.38542        0.00000
 BRILLOUIN|   620           0.00087       -0.23958        0.40625        0.00000
 BRILLOUIN|   621           0.00087       -0.23958        0.42708        0.00000
 BRILLOUIN|   622           0.00087       -0.23958        0.44792        0.00000
 BRILLOUIN|   623           0.00087       -0.23958        0.46875        0.00000
 BRILLOUIN|   624           0.00087       -0.23958        0.48958        0.00000
 BRILLOUIN|   625           0.00087       -0.21875       -0.48958        0.00000
 BRILLOUIN|   626           0.00087       -0.21875       -0.46875        0.00000
 BRILLOUIN|   627           0.00087       -0.21875       -0.44792        0.00000
 BRILLOUIN|   628           0.00087       -0.21875       -0.42708        0.00000
 BRILLOUIN|   629           0.00087       -0.21875       -0.40625        0.00000
 BRILLOUIN|   630           0.00087       -0.21875       -0.38542        0.00000
 BRILLOUIN|   631           0.00087       -0.21875       -0.36458        0.00000
 BRILLOUIN|   632           0.00087       -0.21875       -0.34375        0.00000
 BRILLOUIN|   633           0.00087       -0.21875       -0.32292        0.00000
 BRILLOUIN|   634           0.00087       -0.21875       -0.30208        0.00000
 BRILLOUIN|   635           0.00087       -0.21875       -0.28125        0.00000
 BRILLOUIN|   636           0.00087       -0.21875       -0.26042        0.00000
 BRILLOUIN|   637           0.00087       -0.21875       -0.23958        0.00000
 BRILLOUIN|   638           0.00087       -0.21875       -0.21875        0.00000
 BRILLOUIN|   639           0.00087       -0.21875       -0.19792        0.00000
 BRILLOUIN|   640           0.00087       -0.21875       -0.17708        0.00000
 BRILLOUIN|   641           0.00087       -0.21875       -0.15625        0.00000
 BRILLOUIN|   642           0.00087       -0.21875       -0.13542        0.00000
 BRILLOUIN|   643           0.00087       -0.21875       -0.11458        0.00000
 BRILLOUIN|   644           0.00087       -0.21875       -0.09375        0.00000
 BRILLOUIN|   645           0.00087       -0.21875       -0.07292        0.00000
 BRILLOUIN|   646           0.00087       -0.21875       -0.05208        0.00000
 BRILLOUIN|   647           0.00087       -0.21875       -0.03125        0.00000
 BRILLOUIN|   648           0.00087       -0.21875       -0.01042        0.00000
 BRILLOUIN|   649           0.00087       -0.21875        0.01042        0.00000
 BRILLOUIN|   650           0.00087       -0.21875        0.03125        0.00000
 BRILLOUIN|   651           0.00087       -0.21875        0.05208        0.00000
 BRILLOUIN|   652           0.00087       -0.21875        0.07292        0.00000
 BRILLOUIN|   653           0.00087       -0.21875        0.09375        0.00000
 BRILLOUIN|   654           0.00087       -0.21875        0.11458        0.00000
 BRILLOUIN|   655           0.00087       -0.21875        0.13542        0.00000
 BRILLOUIN|   656           0.00087       -0.21875        0.15625        0.00000
 BRILLOUIN|   657           0.00087       -0.21875        0.17708        0.00000
 BRILLOUIN|   658           0.00087       -0.21875        0.19792        0.00000
 BRILLOUIN|   659           0.00087       -0.21875        0.21875        0.00000
 BRILLOUIN|   660           0.00087       -0.21875        0.23958        0.00000
 BRILLOUIN|   661           0.00087       -0.21875        0.26042        0.00000
 BRILLOUIN|   662           0.00087       -0.21875        0.28125        0.00000
 BRILLOUIN|   663           0.00087       -0.21875        0.30208        0.00000
 BRILLOUIN|   664           0.00087       -0.21875        0.32292        0.00000
 BRILLOUIN|   665           0.00087       -0.21875        0.34375        0.00000
 BRILLOUIN|   666           0.00087       -0.21875        0.36458        0.00000
 BRILLOUIN|   667           0.00087       -0.21875        0.38542        0.00000
 BRILLOUIN|   668           0.00087       -0.21875        0.40625        0.00000
 BRILLOUIN|   669           0.00087       -0.21875        0.42708        0.00000
 BRILLOUIN|   670           0.00087       -0.21875        0.44792        0.00000
 BRILLOUIN|   671           0.00087       -0.21875        0.46875        0.00000
 BRILLOUIN|   672           0.00087       -0.21875        0.48958        0.00000
 BRILLOUIN|   673           0.00087       -0.19792       -0.48958        0.00000
 BRILLOUIN|   674           0.00087       -0.19792       -0.46875        0.00000
 BRILLOUIN|   675           0.00087       -0.19792       -0.44792        0.00000
 BRILLOUIN|   676           0.00087       -0.19792       -0.42708        0.00000
 BRILLOUIN|   677           0.00087       -0.19792       -0.40625        0.00000
 BRILLOUIN|   678           0.00087       -0.19792       -0.38542        0.00000
 BRILLOUIN|   679           0.00087       -0.19792       -0.36458        0.00000
 BRILLOUIN|   680           0.00087       -0.19792       -0.34375        0.00000
 BRILLOUIN|   681           0.00087       -0.19792       -0.32292        0.00000
 BRILLOUIN|   682           0.00087       -0.19792       -0.30208        0.00000
 BRILLOUIN|   683           0.00087       -0.19792       -0.28125        0.00000
 BRILLOUIN|   684           0.00087       -0.19792       -0.26042        0.00000
 BRILLOUIN|   685           0.00087       -0.19792       -0.23958        0.00000
 BRILLOUIN|   686           0.00087       -0.19792       -0.21875        0.00000
 BRILLOUIN|   687           0.00087       -0.19792       -0.19792        0.00000
 BRILLOUIN|   688           0.00087       -0.19792       -0.17708        0.00000
 BRILLOUIN|   689           0.00087       -0.19792       -0.15625        0.00000
 BRILLOUIN|   690           0.00087       -0.19792       -0.13542        0.00000
 BRILLOUIN|   691           0.00087       -0.19792       -0.11458        0.00000
 BRILLOUIN|   692           0.00087       -0.19792       -0.09375        0.00000
 BRILLOUIN|   693           0.00087       -0.19792       -0.07292        0.00000
 BRILLOUIN|   694           0.00087       -0.19792       -0.05208        0.00000
 BRILLOUIN|   695           0.00087       -0.19792       -0.03125        0.00000
 BRILLOUIN|   696           0.00087       -0.19792       -0.01042        0.00000
 BRILLOUIN|   697           0.00087       -0.19792        0.01042        0.00000
 BRILLOUIN|   698           0.00087       -0.19792        0.03125        0.00000
 BRILLOUIN|   699           0.00087       -0.19792        0.05208        0.00000
 BRILLOUIN|   700           0.00087       -0.19792        0.07292        0.00000
 BRILLOUIN|   701           0.00087       -0.19792        0.09375        0.00000
 BRILLOUIN|   702           0.00087       -0.19792        0.11458        0.00000
 BRILLOUIN|   703           0.00087       -0.19792        0.13542        0.00000
 BRILLOUIN|   704           0.00087       -0.19792        0.15625        0.00000
 BRILLOUIN|   705           0.00087       -0.19792        0.17708        0.00000
 BRILLOUIN|   706           0.00087       -0.19792        0.19792        0.00000
 BRILLOUIN|   707           0.00087       -0.19792        0.21875        0.00000
 BRILLOUIN|   708           0.00087       -0.19792        0.23958        0.00000
 BRILLOUIN|   709           0.00087       -0.19792        0.26042        0.00000
 BRILLOUIN|   710           0.00087       -0.19792        0.28125        0.00000
 BRILLOUIN|   711           0.00087       -0.19792        0.30208        0.00000
 BRILLOUIN|   712           0.00087       -0.19792        0.32292        0.00000
 BRILLOUIN|   713           0.00087       -0.19792        0.34375        0.00000
 BRILLOUIN|   714           0.00087       -0.19792        0.36458        0.00000
 BRILLOUIN|   715           0.00087       -0.19792        0.38542        0.00000
 BRILLOUIN|   716           0.00087       -0.19792        0.40625        0.00000
 BRILLOUIN|   717           0.00087       -0.19792        0.42708        0.00000
 BRILLOUIN|   718           0.00087       -0.19792        0.44792        0.00000
 BRILLOUIN|   719           0.00087       -0.19792        0.46875        0.00000
 BRILLOUIN|   720           0.00087       -0.19792        0.48958        0.00000
 BRILLOUIN|   721           0.00087       -0.17708       -0.48958        0.00000
 BRILLOUIN|   722           0.00087       -0.17708       -0.46875        0.00000
 BRILLOUIN|   723           0.00087       -0.17708       -0.44792        0.00000
 BRILLOUIN|   724           0.00087       -0.17708       -0.42708        0.00000
 BRILLOUIN|   725           0.00087       -0.17708       -0.40625        0.00000
 BRILLOUIN|   726           0.00087       -0.17708       -0.38542        0.00000
 BRILLOUIN|   727           0.00087       -0.17708       -0.36458        0.00000
 BRILLOUIN|   728           0.00087       -0.17708       -0.34375        0.00000
 BRILLOUIN|   729           0.00087       -0.17708       -0.32292        0.00000
 BRILLOUIN|   730           0.00087       -0.17708       -0.30208        0.00000
 BRILLOUIN|   731           0.00087       -0.17708       -0.28125        0.00000
 BRILLOUIN|   732           0.00087       -0.17708       -0.26042        0.00000
 BRILLOUIN|   733           0.00087       -0.17708       -0.23958        0.00000
 BRILLOUIN|   734           0.00087       -0.17708       -0.21875        0.00000
 BRILLOUIN|   735           0.00087       -0.17708       -0.19792        0.00000
 BRILLOUIN|   736           0.00087       -0.17708       -0.17708        0.00000
 BRILLOUIN|   737           0.00087       -0.17708       -0.15625        0.00000
 BRILLOUIN|   738           0.00087       -0.17708       -0.13542        0.00000
 BRILLOUIN|   739           0.00087       -0.17708       -0.11458        0.00000
 BRILLOUIN|   740           0.00087       -0.17708       -0.09375        0.00000
 BRILLOUIN|   741           0.00087       -0.17708       -0.07292        0.00000
 BRILLOUIN|   742           0.00087       -0.17708       -0.05208        0.00000
 BRILLOUIN|   743           0.00087       -0.17708       -0.03125        0.00000
 BRILLOUIN|   744           0.00087       -0.17708       -0.01042        0.00000
 BRILLOUIN|   745           0.00087       -0.17708        0.01042        0.00000
 BRILLOUIN|   746           0.00087       -0.17708        0.03125        0.00000
 BRILLOUIN|   747           0.00087       -0.17708        0.05208        0.00000
 BRILLOUIN|   748           0.00087       -0.17708        0.07292        0.00000
 BRILLOUIN|   749           0.00087       -0.17708        0.09375        0.00000
 BRILLOUIN|   750           0.00087       -0.17708        0.11458        0.00000
 BRILLOUIN|   751           0.00087       -0.17708        0.13542        0.00000
 BRILLOUIN|   752           0.00087       -0.17708        0.15625        0.00000
 BRILLOUIN|   753           0.00087       -0.17708        0.17708        0.00000
 BRILLOUIN|   754           0.00087       -0.17708        0.19792        0.00000
 BRILLOUIN|   755           0.00087       -0.17708        0.21875        0.00000
 BRILLOUIN|   756           0.00087       -0.17708        0.23958        0.00000
 BRILLOUIN|   757           0.00087       -0.17708        0.26042        0.00000
 BRILLOUIN|   758           0.00087       -0.17708        0.28125        0.00000
 BRILLOUIN|   759           0.00087       -0.17708        0.30208        0.00000
 BRILLOUIN|   760           0.00087       -0.17708        0.32292        0.00000
 BRILLOUIN|   761           0.00087       -0.17708        0.34375        0.00000
 BRILLOUIN|   762           0.00087       -0.17708        0.36458        0.00000
 BRILLOUIN|   763           0.00087       -0.17708        0.38542        0.00000
 BRILLOUIN|   764           0.00087       -0.17708        0.40625        0.00000
 BRILLOUIN|   765           0.00087       -0.17708        0.42708        0.00000
 BRILLOUIN|   766           0.00087       -0.17708        0.44792        0.00000
 BRILLOUIN|   767           0.00087       -0.17708        0.46875        0.00000
 BRILLOUIN|   768           0.00087       -0.17708        0.48958        0.00000
 BRILLOUIN|   769           0.00087       -0.15625       -0.48958        0.00000
 BRILLOUIN|   770           0.00087       -0.15625       -0.46875        0.00000
 BRILLOUIN|   771           0.00087       -0.15625       -0.44792        0.00000
 BRILLOUIN|   772           0.00087       -0.15625       -0.42708        0.00000
 BRILLOUIN|   773           0.00087       -0.15625       -0.40625        0.00000
 BRILLOUIN|   774           0.00087       -0.15625       -0.38542        0.00000
 BRILLOUIN|   775           0.00087       -0.15625       -0.36458        0.00000
 BRILLOUIN|   776           0.00087       -0.15625       -0.34375        0.00000
 BRILLOUIN|   777           0.00087       -0.15625       -0.32292        0.00000
 BRILLOUIN|   778           0.00087       -0.15625       -0.30208        0.00000
 BRILLOUIN|   779           0.00087       -0.15625       -0.28125        0.00000
 BRILLOUIN|   780           0.00087       -0.15625       -0.26042        0.00000
 BRILLOUIN|   781           0.00087       -0.15625       -0.23958        0.00000
 BRILLOUIN|   782           0.00087       -0.15625       -0.21875        0.00000
 BRILLOUIN|   783           0.00087       -0.15625       -0.19792        0.00000
 BRILLOUIN|   784           0.00087       -0.15625       -0.17708        0.00000
 BRILLOUIN|   785           0.00087       -0.15625       -0.15625        0.00000
 BRILLOUIN|   786           0.00087       -0.15625       -0.13542        0.00000
 BRILLOUIN|   787           0.00087       -0.15625       -0.11458        0.00000
 BRILLOUIN|   788           0.00087       -0.15625       -0.09375        0.00000
 BRILLOUIN|   789           0.00087       -0.15625       -0.07292        0.00000
 BRILLOUIN|   790           0.00087       -0.15625       -0.05208        0.00000
 BRILLOUIN|   791           0.00087       -0.15625       -0.03125        0.00000
 BRILLOUIN|   792           0.00087       -0.15625       -0.01042        0.00000
 BRILLOUIN|   793           0.00087       -0.15625        0.01042        0.00000
 BRILLOUIN|   794           0.00087       -0.15625        0.03125        0.00000
 BRILLOUIN|   795           0.00087       -0.15625        0.05208        0.00000
 BRILLOUIN|   796           0.00087       -0.15625        0.07292        0.00000
 BRILLOUIN|   797           0.00087       -0.15625        0.09375        0.00000
 BRILLOUIN|   798           0.00087       -0.15625        0.11458        0.00000
 BRILLOUIN|   799           0.00087       -0.15625        0.13542        0.00000
 BRILLOUIN|   800           0.00087       -0.15625        0.15625        0.00000
 BRILLOUIN|   801           0.00087       -0.15625        0.17708        0.00000
 BRILLOUIN|   802           0.00087       -0.15625        0.19792        0.00000
 BRILLOUIN|   803           0.00087       -0.15625        0.21875        0.00000
 BRILLOUIN|   804           0.00087       -0.15625        0.23958        0.00000
 BRILLOUIN|   805           0.00087       -0.15625        0.26042        0.00000
 BRILLOUIN|   806           0.00087       -0.15625        0.28125        0.00000
 BRILLOUIN|   807           0.00087       -0.15625        0.30208        0.00000
 BRILLOUIN|   808           0.00087       -0.15625        0.32292        0.00000
 BRILLOUIN|   809           0.00087       -0.15625        0.34375        0.00000
 BRILLOUIN|   810           0.00087       -0.15625        0.36458        0.00000
 BRILLOUIN|   811           0.00087       -0.15625        0.38542        0.00000
 BRILLOUIN|   812           0.00087       -0.15625        0.40625        0.00000
 BRILLOUIN|   813           0.00087       -0.15625        0.42708        0.00000
 BRILLOUIN|   814           0.00087       -0.15625        0.44792        0.00000
 BRILLOUIN|   815           0.00087       -0.15625        0.46875        0.00000
 BRILLOUIN|   816           0.00087       -0.15625        0.48958        0.00000
 BRILLOUIN|   817           0.00087       -0.13542       -0.48958        0.00000
 BRILLOUIN|   818           0.00087       -0.13542       -0.46875        0.00000
 BRILLOUIN|   819           0.00087       -0.13542       -0.44792        0.00000
 BRILLOUIN|   820           0.00087       -0.13542       -0.42708        0.00000
 BRILLOUIN|   821           0.00087       -0.13542       -0.40625        0.00000
 BRILLOUIN|   822           0.00087       -0.13542       -0.38542        0.00000
 BRILLOUIN|   823           0.00087       -0.13542       -0.36458        0.00000
 BRILLOUIN|   824           0.00087       -0.13542       -0.34375        0.00000
 BRILLOUIN|   825           0.00087       -0.13542       -0.32292        0.00000
 BRILLOUIN|   826           0.00087       -0.13542       -0.30208        0.00000
 BRILLOUIN|   827           0.00087       -0.13542       -0.28125        0.00000
 BRILLOUIN|   828           0.00087       -0.13542       -0.26042        0.00000
 BRILLOUIN|   829           0.00087       -0.13542       -0.23958        0.00000
 BRILLOUIN|   830           0.00087       -0.13542       -0.21875        0.00000
 BRILLOUIN|   831           0.00087       -0.13542       -0.19792        0.00000
 BRILLOUIN|   832           0.00087       -0.13542       -0.17708        0.00000
 BRILLOUIN|   833           0.00087       -0.13542       -0.15625        0.00000
 BRILLOUIN|   834           0.00087       -0.13542       -0.13542        0.00000
 BRILLOUIN|   835           0.00087       -0.13542       -0.11458        0.00000
 BRILLOUIN|   836           0.00087       -0.13542       -0.09375        0.00000
 BRILLOUIN|   837           0.00087       -0.13542       -0.07292        0.00000
 BRILLOUIN|   838           0.00087       -0.13542       -0.05208        0.00000
 BRILLOUIN|   839           0.00087       -0.13542       -0.03125        0.00000
 BRILLOUIN|   840           0.00087       -0.13542       -0.01042        0.00000
 BRILLOUIN|   841           0.00087       -0.13542        0.01042        0.00000
 BRILLOUIN|   842           0.00087       -0.13542        0.03125        0.00000
 BRILLOUIN|   843           0.00087       -0.13542        0.05208        0.00000
 BRILLOUIN|   844           0.00087       -0.13542        0.07292        0.00000
 BRILLOUIN|   845           0.00087       -0.13542        0.09375        0.00000
 BRILLOUIN|   846           0.00087       -0.13542        0.11458        0.00000
 BRILLOUIN|   847           0.00087       -0.13542        0.13542        0.00000
 BRILLOUIN|   848           0.00087       -0.13542        0.15625        0.00000
 BRILLOUIN|   849           0.00087       -0.13542        0.17708        0.00000
 BRILLOUIN|   850           0.00087       -0.13542        0.19792        0.00000
 BRILLOUIN|   851           0.00087       -0.13542        0.21875        0.00000
 BRILLOUIN|   852           0.00087       -0.13542        0.23958        0.00000
 BRILLOUIN|   853           0.00087       -0.13542        0.26042        0.00000
 BRILLOUIN|   854           0.00087       -0.13542        0.28125        0.00000
 BRILLOUIN|   855           0.00087       -0.13542        0.30208        0.00000
 BRILLOUIN|   856           0.00087       -0.13542        0.32292        0.00000
 BRILLOUIN|   857           0.00087       -0.13542        0.34375        0.00000
 BRILLOUIN|   858           0.00087       -0.13542        0.36458        0.00000
 BRILLOUIN|   859           0.00087       -0.13542        0.38542        0.00000
 BRILLOUIN|   860           0.00087       -0.13542        0.40625        0.00000
 BRILLOUIN|   861           0.00087       -0.13542        0.42708        0.00000
 BRILLOUIN|   862           0.00087       -0.13542        0.44792        0.00000
 BRILLOUIN|   863           0.00087       -0.13542        0.46875        0.00000
 BRILLOUIN|   864           0.00087       -0.13542        0.48958        0.00000
 BRILLOUIN|   865           0.00087       -0.11458       -0.48958        0.00000
 BRILLOUIN|   866           0.00087       -0.11458       -0.46875        0.00000
 BRILLOUIN|   867           0.00087       -0.11458       -0.44792        0.00000
 BRILLOUIN|   868           0.00087       -0.11458       -0.42708        0.00000
 BRILLOUIN|   869           0.00087       -0.11458       -0.40625        0.00000
 BRILLOUIN|   870           0.00087       -0.11458       -0.38542        0.00000
 BRILLOUIN|   871           0.00087       -0.11458       -0.36458        0.00000
 BRILLOUIN|   872           0.00087       -0.11458       -0.34375        0.00000
 BRILLOUIN|   873           0.00087       -0.11458       -0.32292        0.00000
 BRILLOUIN|   874           0.00087       -0.11458       -0.30208        0.00000
 BRILLOUIN|   875           0.00087       -0.11458       -0.28125        0.00000
 BRILLOUIN|   876           0.00087       -0.11458       -0.26042        0.00000
 BRILLOUIN|   877           0.00087       -0.11458       -0.23958        0.00000
 BRILLOUIN|   878           0.00087       -0.11458       -0.21875        0.00000
 BRILLOUIN|   879           0.00087       -0.11458       -0.19792        0.00000
 BRILLOUIN|   880           0.00087       -0.11458       -0.17708        0.00000
 BRILLOUIN|   881           0.00087       -0.11458       -0.15625        0.00000
 BRILLOUIN|   882           0.00087       -0.11458       -0.13542        0.00000
 BRILLOUIN|   883           0.00087       -0.11458       -0.11458        0.00000
 BRILLOUIN|   884           0.00087       -0.11458       -0.09375        0.00000
 BRILLOUIN|   885           0.00087       -0.11458       -0.07292        0.00000
 BRILLOUIN|   886           0.00087       -0.11458       -0.05208        0.00000
 BRILLOUIN|   887           0.00087       -0.11458       -0.03125        0.00000
 BRILLOUIN|   888           0.00087       -0.11458       -0.01042        0.00000
 BRILLOUIN|   889           0.00087       -0.11458        0.01042        0.00000
 BRILLOUIN|   890           0.00087       -0.11458        0.03125        0.00000
 BRILLOUIN|   891           0.00087       -0.11458        0.05208        0.00000
 BRILLOUIN|   892           0.00087       -0.11458        0.07292        0.00000
 BRILLOUIN|   893           0.00087       -0.11458        0.09375        0.00000
 BRILLOUIN|   894           0.00087       -0.11458        0.11458        0.00000
 BRILLOUIN|   895           0.00087       -0.11458        0.13542        0.00000
 BRILLOUIN|   896           0.00087       -0.11458        0.15625        0.00000
 BRILLOUIN|   897           0.00087       -0.11458        0.17708        0.00000
 BRILLOUIN|   898           0.00087       -0.11458        0.19792        0.00000
 BRILLOUIN|   899           0.00087       -0.11458        0.21875        0.00000
 BRILLOUIN|   900           0.00087       -0.11458        0.23958        0.00000
 BRILLOUIN|   901           0.00087       -0.11458        0.26042        0.00000
 BRILLOUIN|   902           0.00087       -0.11458        0.28125        0.00000
 BRILLOUIN|   903           0.00087       -0.11458        0.30208        0.00000
 BRILLOUIN|   904           0.00087       -0.11458        0.32292        0.00000
 BRILLOUIN|   905           0.00087       -0.11458        0.34375        0.00000
 BRILLOUIN|   906           0.00087       -0.11458        0.36458        0.00000
 BRILLOUIN|   907           0.00087       -0.11458        0.38542        0.00000
 BRILLOUIN|   908           0.00087       -0.11458        0.40625        0.00000
 BRILLOUIN|   909           0.00087       -0.11458        0.42708        0.00000
 BRILLOUIN|   910           0.00087       -0.11458        0.44792        0.00000
 BRILLOUIN|   911           0.00087       -0.11458        0.46875        0.00000
 BRILLOUIN|   912           0.00087       -0.11458        0.48958        0.00000
 BRILLOUIN|   913           0.00087       -0.09375       -0.48958        0.00000
 BRILLOUIN|   914           0.00087       -0.09375       -0.46875        0.00000
 BRILLOUIN|   915           0.00087       -0.09375       -0.44792        0.00000
 BRILLOUIN|   916           0.00087       -0.09375       -0.42708        0.00000
 BRILLOUIN|   917           0.00087       -0.09375       -0.40625        0.00000
 BRILLOUIN|   918           0.00087       -0.09375       -0.38542        0.00000
 BRILLOUIN|   919           0.00087       -0.09375       -0.36458        0.00000
 BRILLOUIN|   920           0.00087       -0.09375       -0.34375        0.00000
 BRILLOUIN|   921           0.00087       -0.09375       -0.32292        0.00000
 BRILLOUIN|   922           0.00087       -0.09375       -0.30208        0.00000
 BRILLOUIN|   923           0.00087       -0.09375       -0.28125        0.00000
 BRILLOUIN|   924           0.00087       -0.09375       -0.26042        0.00000
 BRILLOUIN|   925           0.00087       -0.09375       -0.23958        0.00000
 BRILLOUIN|   926           0.00087       -0.09375       -0.21875        0.00000
 BRILLOUIN|   927           0.00087       -0.09375       -0.19792        0.00000
 BRILLOUIN|   928           0.00087       -0.09375       -0.17708        0.00000
 BRILLOUIN|   929           0.00087       -0.09375       -0.15625        0.00000
 BRILLOUIN|   930           0.00087       -0.09375       -0.13542        0.00000
 BRILLOUIN|   931           0.00087       -0.09375       -0.11458        0.00000
 BRILLOUIN|   932           0.00087       -0.09375       -0.09375        0.00000
 BRILLOUIN|   933           0.00087       -0.09375       -0.07292        0.00000
 BRILLOUIN|   934           0.00087       -0.09375       -0.05208        0.00000
 BRILLOUIN|   935           0.00087       -0.09375       -0.03125        0.00000
 BRILLOUIN|   936           0.00087       -0.09375       -0.01042        0.00000
 BRILLOUIN|   937           0.00087       -0.09375        0.01042        0.00000
 BRILLOUIN|   938           0.00087       -0.09375        0.03125        0.00000
 BRILLOUIN|   939           0.00087       -0.09375        0.05208        0.00000
 BRILLOUIN|   940           0.00087       -0.09375        0.07292        0.00000
 BRILLOUIN|   941           0.00087       -0.09375        0.09375        0.00000
 BRILLOUIN|   942           0.00087       -0.09375        0.11458        0.00000
 BRILLOUIN|   943           0.00087       -0.09375        0.13542        0.00000
 BRILLOUIN|   944           0.00087       -0.09375        0.15625        0.00000
 BRILLOUIN|   945           0.00087       -0.09375        0.17708        0.00000
 BRILLOUIN|   946           0.00087       -0.09375        0.19792        0.00000
 BRILLOUIN|   947           0.00087       -0.09375        0.21875        0.00000
 BRILLOUIN|   948           0.00087       -0.09375        0.23958        0.00000
 BRILLOUIN|   949           0.00087       -0.09375        0.26042        0.00000
 BRILLOUIN|   950           0.00087       -0.09375        0.28125        0.00000
 BRILLOUIN|   951           0.00087       -0.09375        0.30208        0.00000
 BRILLOUIN|   952           0.00087       -0.09375        0.32292        0.00000
 BRILLOUIN|   953           0.00087       -0.09375        0.34375        0.00000
 BRILLOUIN|   954           0.00087       -0.09375        0.36458        0.00000
 BRILLOUIN|   955           0.00087       -0.09375        0.38542        0.00000
 BRILLOUIN|   956           0.00087       -0.09375        0.40625        0.00000
 BRILLOUIN|   957           0.00087       -0.09375        0.42708        0.00000
 BRILLOUIN|   958           0.00087       -0.09375        0.44792        0.00000
 BRILLOUIN|   959           0.00087       -0.09375        0.46875        0.00000
 BRILLOUIN|   960           0.00087       -0.09375        0.48958        0.00000
 BRILLOUIN|   961           0.00087       -0.07292       -0.48958        0.00000
 BRILLOUIN|   962           0.00087       -0.07292       -0.46875        0.00000
 BRILLOUIN|   963           0.00087       -0.07292       -0.44792        0.00000
 BRILLOUIN|   964           0.00087       -0.07292       -0.42708        0.00000
 BRILLOUIN|   965           0.00087       -0.07292       -0.40625        0.00000
 BRILLOUIN|   966           0.00087       -0.07292       -0.38542        0.00000
 BRILLOUIN|   967           0.00087       -0.07292       -0.36458        0.00000
 BRILLOUIN|   968           0.00087       -0.07292       -0.34375        0.00000
 BRILLOUIN|   969           0.00087       -0.07292       -0.32292        0.00000
 BRILLOUIN|   970           0.00087       -0.07292       -0.30208        0.00000
 BRILLOUIN|   971           0.00087       -0.07292       -0.28125        0.00000
 BRILLOUIN|   972           0.00087       -0.07292       -0.26042        0.00000
 BRILLOUIN|   973           0.00087       -0.07292       -0.23958        0.00000
 BRILLOUIN|   974           0.00087       -0.07292       -0.21875        0.00000
 BRILLOUIN|   975           0.00087       -0.07292       -0.19792        0.00000
 BRILLOUIN|   976           0.00087       -0.07292       -0.17708        0.00000
 BRILLOUIN|   977           0.00087       -0.07292       -0.15625        0.00000
 BRILLOUIN|   978           0.00087       -0.07292       -0.13542        0.00000
 BRILLOUIN|   979           0.00087       -0.07292       -0.11458        0.00000
 BRILLOUIN|   980           0.00087       -0.07292       -0.09375        0.00000
 BRILLOUIN|   981           0.00087       -0.07292       -0.07292        0.00000
 BRILLOUIN|   982           0.00087       -0.07292       -0.05208        0.00000
 BRILLOUIN|   983           0.00087       -0.07292       -0.03125        0.00000
 BRILLOUIN|   984           0.00087       -0.07292       -0.01042        0.00000
 BRILLOUIN|   985           0.00087       -0.07292        0.01042        0.00000
 BRILLOUIN|   986           0.00087       -0.07292        0.03125        0.00000
 BRILLOUIN|   987           0.00087       -0.07292        0.05208        0.00000
 BRILLOUIN|   988           0.00087       -0.07292        0.07292        0.00000
 BRILLOUIN|   989           0.00087       -0.07292        0.09375        0.00000
 BRILLOUIN|   990           0.00087       -0.07292        0.11458        0.00000
 BRILLOUIN|   991           0.00087       -0.07292        0.13542        0.00000
 BRILLOUIN|   992           0.00087       -0.07292        0.15625        0.00000
 BRILLOUIN|   993           0.00087       -0.07292        0.17708        0.00000
 BRILLOUIN|   994           0.00087       -0.07292        0.19792        0.00000
 BRILLOUIN|   995           0.00087       -0.07292        0.21875        0.00000
 BRILLOUIN|   996           0.00087       -0.07292        0.23958        0.00000
 BRILLOUIN|   997           0.00087       -0.07292        0.26042        0.00000
 BRILLOUIN|   998           0.00087       -0.07292        0.28125        0.00000
 BRILLOUIN|   999           0.00087       -0.07292        0.30208        0.00000
 BRILLOUIN|  1000           0.00087       -0.07292        0.32292        0.00000
 BRILLOUIN|  1001           0.00087       -0.07292        0.34375        0.00000
 BRILLOUIN|  1002           0.00087       -0.07292        0.36458        0.00000
 BRILLOUIN|  1003           0.00087       -0.07292        0.38542        0.00000
 BRILLOUIN|  1004           0.00087       -0.07292        0.40625        0.00000
 BRILLOUIN|  1005           0.00087       -0.07292        0.42708        0.00000
 BRILLOUIN|  1006           0.00087       -0.07292        0.44792        0.00000
 BRILLOUIN|  1007           0.00087       -0.07292        0.46875        0.00000
 BRILLOUIN|  1008           0.00087       -0.07292        0.48958        0.00000
 BRILLOUIN|  1009           0.00087       -0.05208       -0.48958        0.00000
 BRILLOUIN|  1010           0.00087       -0.05208       -0.46875        0.00000
 BRILLOUIN|  1011           0.00087       -0.05208       -0.44792        0.00000
 BRILLOUIN|  1012           0.00087       -0.05208       -0.42708        0.00000
 BRILLOUIN|  1013           0.00087       -0.05208       -0.40625        0.00000
 BRILLOUIN|  1014           0.00087       -0.05208       -0.38542        0.00000
 BRILLOUIN|  1015           0.00087       -0.05208       -0.36458        0.00000
 BRILLOUIN|  1016           0.00087       -0.05208       -0.34375        0.00000
 BRILLOUIN|  1017           0.00087       -0.05208       -0.32292        0.00000
 BRILLOUIN|  1018           0.00087       -0.05208       -0.30208        0.00000
 BRILLOUIN|  1019           0.00087       -0.05208       -0.28125        0.00000
 BRILLOUIN|  1020           0.00087       -0.05208       -0.26042        0.00000
 BRILLOUIN|  1021           0.00087       -0.05208       -0.23958        0.00000
 BRILLOUIN|  1022           0.00087       -0.05208       -0.21875        0.00000
 BRILLOUIN|  1023           0.00087       -0.05208       -0.19792        0.00000
 BRILLOUIN|  1024           0.00087       -0.05208       -0.17708        0.00000
 BRILLOUIN|  1025           0.00087       -0.05208       -0.15625        0.00000
 BRILLOUIN|  1026           0.00087       -0.05208       -0.13542        0.00000
 BRILLOUIN|  1027           0.00087       -0.05208       -0.11458        0.00000
 BRILLOUIN|  1028           0.00087       -0.05208       -0.09375        0.00000
 BRILLOUIN|  1029           0.00087       -0.05208       -0.07292        0.00000
 BRILLOUIN|  1030           0.00087       -0.05208       -0.05208        0.00000
 BRILLOUIN|  1031           0.00087       -0.05208       -0.03125        0.00000
 BRILLOUIN|  1032           0.00087       -0.05208       -0.01042        0.00000
 BRILLOUIN|  1033           0.00087       -0.05208        0.01042        0.00000
 BRILLOUIN|  1034           0.00087       -0.05208        0.03125        0.00000
 BRILLOUIN|  1035           0.00087       -0.05208        0.05208        0.00000
 BRILLOUIN|  1036           0.00087       -0.05208        0.07292        0.00000
 BRILLOUIN|  1037           0.00087       -0.05208        0.09375        0.00000
 BRILLOUIN|  1038           0.00087       -0.05208        0.11458        0.00000
 BRILLOUIN|  1039           0.00087       -0.05208        0.13542        0.00000
 BRILLOUIN|  1040           0.00087       -0.05208        0.15625        0.00000
 BRILLOUIN|  1041           0.00087       -0.05208        0.17708        0.00000
 BRILLOUIN|  1042           0.00087       -0.05208        0.19792        0.00000
 BRILLOUIN|  1043           0.00087       -0.05208        0.21875        0.00000
 BRILLOUIN|  1044           0.00087       -0.05208        0.23958        0.00000
 BRILLOUIN|  1045           0.00087       -0.05208        0.26042        0.00000
 BRILLOUIN|  1046           0.00087       -0.05208        0.28125        0.00000
 BRILLOUIN|  1047           0.00087       -0.05208        0.30208        0.00000
 BRILLOUIN|  1048           0.00087       -0.05208        0.32292        0.00000
 BRILLOUIN|  1049           0.00087       -0.05208        0.34375        0.00000
 BRILLOUIN|  1050           0.00087       -0.05208        0.36458        0.00000
 BRILLOUIN|  1051           0.00087       -0.05208        0.38542        0.00000
 BRILLOUIN|  1052           0.00087       -0.05208        0.40625        0.00000
 BRILLOUIN|  1053           0.00087       -0.05208        0.42708        0.00000
 BRILLOUIN|  1054           0.00087       -0.05208        0.44792        0.00000
 BRILLOUIN|  1055           0.00087       -0.05208        0.46875        0.00000
 BRILLOUIN|  1056           0.00087       -0.05208        0.48958        0.00000
 BRILLOUIN|  1057           0.00087       -0.03125       -0.48958        0.00000
 BRILLOUIN|  1058           0.00087       -0.03125       -0.46875        0.00000
 BRILLOUIN|  1059           0.00087       -0.03125       -0.44792        0.00000
 BRILLOUIN|  1060           0.00087       -0.03125       -0.42708        0.00000
 BRILLOUIN|  1061           0.00087       -0.03125       -0.40625        0.00000
 BRILLOUIN|  1062           0.00087       -0.03125       -0.38542        0.00000
 BRILLOUIN|  1063           0.00087       -0.03125       -0.36458        0.00000
 BRILLOUIN|  1064           0.00087       -0.03125       -0.34375        0.00000
 BRILLOUIN|  1065           0.00087       -0.03125       -0.32292        0.00000
 BRILLOUIN|  1066           0.00087       -0.03125       -0.30208        0.00000
 BRILLOUIN|  1067           0.00087       -0.03125       -0.28125        0.00000
 BRILLOUIN|  1068           0.00087       -0.03125       -0.26042        0.00000
 BRILLOUIN|  1069           0.00087       -0.03125       -0.23958        0.00000
 BRILLOUIN|  1070           0.00087       -0.03125       -0.21875        0.00000
 BRILLOUIN|  1071           0.00087       -0.03125       -0.19792        0.00000
 BRILLOUIN|  1072           0.00087       -0.03125       -0.17708        0.00000
 BRILLOUIN|  1073           0.00087       -0.03125       -0.15625        0.00000
 BRILLOUIN|  1074           0.00087       -0.03125       -0.13542        0.00000
 BRILLOUIN|  1075           0.00087       -0.03125       -0.11458        0.00000
 BRILLOUIN|  1076           0.00087       -0.03125       -0.09375        0.00000
 BRILLOUIN|  1077           0.00087       -0.03125       -0.07292        0.00000
 BRILLOUIN|  1078           0.00087       -0.03125       -0.05208        0.00000
 BRILLOUIN|  1079           0.00087       -0.03125       -0.03125        0.00000
 BRILLOUIN|  1080           0.00087       -0.03125       -0.01042        0.00000
 BRILLOUIN|  1081           0.00087       -0.03125        0.01042        0.00000
 BRILLOUIN|  1082           0.00087       -0.03125        0.03125        0.00000
 BRILLOUIN|  1083           0.00087       -0.03125        0.05208        0.00000
 BRILLOUIN|  1084           0.00087       -0.03125        0.07292        0.00000
 BRILLOUIN|  1085           0.00087       -0.03125        0.09375        0.00000
 BRILLOUIN|  1086           0.00087       -0.03125        0.11458        0.00000
 BRILLOUIN|  1087           0.00087       -0.03125        0.13542        0.00000
 BRILLOUIN|  1088           0.00087       -0.03125        0.15625        0.00000
 BRILLOUIN|  1089           0.00087       -0.03125        0.17708        0.00000
 BRILLOUIN|  1090           0.00087       -0.03125        0.19792        0.00000
 BRILLOUIN|  1091           0.00087       -0.03125        0.21875        0.00000
 BRILLOUIN|  1092           0.00087       -0.03125        0.23958        0.00000
 BRILLOUIN|  1093           0.00087       -0.03125        0.26042        0.00000
 BRILLOUIN|  1094           0.00087       -0.03125        0.28125        0.00000
 BRILLOUIN|  1095           0.00087       -0.03125        0.30208        0.00000
 BRILLOUIN|  1096           0.00087       -0.03125        0.32292        0.00000
 BRILLOUIN|  1097           0.00087       -0.03125        0.34375        0.00000
 BRILLOUIN|  1098           0.00087       -0.03125        0.36458        0.00000
 BRILLOUIN|  1099           0.00087       -0.03125        0.38542        0.00000
 BRILLOUIN|  1100           0.00087       -0.03125        0.40625        0.00000
 BRILLOUIN|  1101           0.00087       -0.03125        0.42708        0.00000
 BRILLOUIN|  1102           0.00087       -0.03125        0.44792        0.00000
 BRILLOUIN|  1103           0.00087       -0.03125        0.46875        0.00000
 BRILLOUIN|  1104           0.00087       -0.03125        0.48958        0.00000
 BRILLOUIN|  1105           0.00087       -0.01042       -0.48958        0.00000
 BRILLOUIN|  1106           0.00087       -0.01042       -0.46875        0.00000
 BRILLOUIN|  1107           0.00087       -0.01042       -0.44792        0.00000
 BRILLOUIN|  1108           0.00087       -0.01042       -0.42708        0.00000
 BRILLOUIN|  1109           0.00087       -0.01042       -0.40625        0.00000
 BRILLOUIN|  1110           0.00087       -0.01042       -0.38542        0.00000
 BRILLOUIN|  1111           0.00087       -0.01042       -0.36458        0.00000
 BRILLOUIN|  1112           0.00087       -0.01042       -0.34375        0.00000
 BRILLOUIN|  1113           0.00087       -0.01042       -0.32292        0.00000
 BRILLOUIN|  1114           0.00087       -0.01042       -0.30208        0.00000
 BRILLOUIN|  1115           0.00087       -0.01042       -0.28125        0.00000
 BRILLOUIN|  1116           0.00087       -0.01042       -0.26042        0.00000
 BRILLOUIN|  1117           0.00087       -0.01042       -0.23958        0.00000
 BRILLOUIN|  1118           0.00087       -0.01042       -0.21875        0.00000
 BRILLOUIN|  1119           0.00087       -0.01042       -0.19792        0.00000
 BRILLOUIN|  1120           0.00087       -0.01042       -0.17708        0.00000
 BRILLOUIN|  1121           0.00087       -0.01042       -0.15625        0.00000
 BRILLOUIN|  1122           0.00087       -0.01042       -0.13542        0.00000
 BRILLOUIN|  1123           0.00087       -0.01042       -0.11458        0.00000
 BRILLOUIN|  1124           0.00087       -0.01042       -0.09375        0.00000
 BRILLOUIN|  1125           0.00087       -0.01042       -0.07292        0.00000
 BRILLOUIN|  1126           0.00087       -0.01042       -0.05208        0.00000
 BRILLOUIN|  1127           0.00087       -0.01042       -0.03125        0.00000
 BRILLOUIN|  1128           0.00087       -0.01042       -0.01042        0.00000
 BRILLOUIN|  1129           0.00087       -0.01042        0.01042        0.00000
 BRILLOUIN|  1130           0.00087       -0.01042        0.03125        0.00000
 BRILLOUIN|  1131           0.00087       -0.01042        0.05208        0.00000
 BRILLOUIN|  1132           0.00087       -0.01042        0.07292        0.00000
 BRILLOUIN|  1133           0.00087       -0.01042        0.09375        0.00000
 BRILLOUIN|  1134           0.00087       -0.01042        0.11458        0.00000
 BRILLOUIN|  1135           0.00087       -0.01042        0.13542        0.00000
 BRILLOUIN|  1136           0.00087       -0.01042        0.15625        0.00000
 BRILLOUIN|  1137           0.00087       -0.01042        0.17708        0.00000
 BRILLOUIN|  1138           0.00087       -0.01042        0.19792        0.00000
 BRILLOUIN|  1139           0.00087       -0.01042        0.21875        0.00000
 BRILLOUIN|  1140           0.00087       -0.01042        0.23958        0.00000
 BRILLOUIN|  1141           0.00087       -0.01042        0.26042        0.00000
 BRILLOUIN|  1142           0.00087       -0.01042        0.28125        0.00000
 BRILLOUIN|  1143           0.00087       -0.01042        0.30208        0.00000
 BRILLOUIN|  1144           0.00087       -0.01042        0.32292        0.00000
 BRILLOUIN|  1145           0.00087       -0.01042        0.34375        0.00000
 BRILLOUIN|  1146           0.00087       -0.01042        0.36458        0.00000
 BRILLOUIN|  1147           0.00087       -0.01042        0.38542        0.00000
 BRILLOUIN|  1148           0.00087       -0.01042        0.40625        0.00000
 BRILLOUIN|  1149           0.00087       -0.01042        0.42708        0.00000
 BRILLOUIN|  1150           0.00087       -0.01042        0.44792        0.00000
 BRILLOUIN|  1151           0.00087       -0.01042        0.46875        0.00000
 BRILLOUIN|  1152           0.00087       -0.01042        0.48958        0.00000
 *******************************************************************************

 *******************************************************************************
 *******************************************************************************
 **                                                                           **
 **     #####                         ##              ##                      **
 **    ##   ##            ##          ##              ##                      **
 **   ##     ##                       ##            ######                    **
 **   ##     ##  ##   ##  ##   #####  ##  ##   ####   ##    #####    #####    **
 **   ##     ##  ##   ##  ##  ##      ## ##   ##      ##   ##   ##  ##   ##   **
 **   ##  ## ##  ##   ##  ##  ##      ####     ###    ##   ######   ######    **
 **    ##  ###   ##   ##  ##  ##      ## ##      ##   ##   ##       ##        **
 **     #######   #####   ##   #####  ##  ##  ####    ##    #####   ##        **
 **           ##                                                    ##        **
 **                                                                           **
 **                                                ... make the atoms dance   **
 **                                                                           **
 **            Copyright (C) by CP2K developers group (2000-2025)             **
 **                      J. Chem. Phys. 152, 194103 (2020)                    **
 **                                                                           **
 *******************************************************************************

 DFT| Spin restricted Kohn-Sham (RKS) calculation                            RKS
 DFT| Multiplicity                                                             1
 DFT| Number of spin states                                                    1
 DFT| Charge                                                                   0
 DFT| Self-interaction correction (SIC)                                       NO
 DFT| Cutoffs: density                                              1.000000E-10
 DFT|          gradient                                             1.000000E-10
 DFT|          tau                                                  1.000000E-10
 DFT|          cutoff_smoothing_range                               0.000000E+00
 DFT| XC density smoothing                                                  NONE
 DFT| XC derivatives                                                          PW

 FUNCTIONAL| PBE:
 FUNCTIONAL| J.P.Perdew, K.Burke, M.Ernzerhof, Phys. Rev. Letter, vol. 77, n 18,
 FUNCTIONAL|  pp. 3865-3868, (1996) {spin unpolarized}                          


 QS| Method:                                                                 GPW
 QS| Density plane wave grid type                        NON-SPHERICAL FULLSPACE
 QS| Number of grid levels:                                                    4
 QS| Density cutoff [a.u.]:                                                500.0
 QS| Multi grid cutoff [a.u.]: 1) grid level                               500.0
 QS|                           2) grid level                               166.7
 QS|                           3) grid level                                55.6
 QS|                           4) grid level                                18.5
 QS| Grid level progression factor:                                          3.0
 QS| Relative density cutoff [a.u.]:                                        50.0
 QS| Interaction thresholds: eps_pgf_orb:                                1.0E-12
 QS|                         eps_filter_matrix:                          0.0E+00
 QS|                         eps_core_charge:                            1.0E-14
 QS|                         eps_rho_gspace:                             1.0E-12
 QS|                         eps_rho_rspace:                             1.0E-12
 QS|                         eps_gvg_rspace:                             1.0E-06
 QS|                         eps_ppl:                                    1.0E-02
 QS|                         eps_ppnl:                                   1.0E-08


 ATOMIC KIND INFORMATION

  1. Atomic kind: B                                     Number of atoms:       1

     Orbital Basis Set                                aug-DZVP-MOLOPT-GTH-tier-2

       Number of orbital shell sets:                                           1
       Number of orbital shells:                                               9
       Number of primitive Cartesian functions:                                6
       Number of Cartesian basis functions:                                   34
       Number of spherical basis functions:                                   29
       Norm type:                                                              2

       Normalised Cartesian orbitals:

                        Set   Shell   Orbital            Exponent    Coefficient

                          1       1    2s                0.085137       0.035450
                                                         0.130000       0.000000
                                                         0.253523       0.151700
                                                         0.614553       0.172878
                                                         1.347699      -0.198106
                                                         3.575233      -0.251277

                          1       2    3s                0.085137       0.138906
                                                         0.130000       0.000000
                                                         0.253523      -0.051628
                                                         0.614553      -0.255207
                                                         1.347699       0.196373
                                                         3.575233       0.549634

                          1       3    4s                0.085137       0.157071
                                                         0.130000      -0.296582
                                                         0.253523      -0.094070
                                                         0.614553       0.001468
                                                         1.347699       0.043372
                                                         3.575233       0.000000

                          1       4    3px               0.085137      -0.025250
                                                         0.130000       0.000000
                                                         0.253523      -0.107441
                                                         0.614553      -0.197045
                                                         1.347699      -0.232253
                                                         3.575233      -0.379953
                          1       4    3py               0.085137      -0.025250
                                                         0.130000       0.000000
                                                         0.253523      -0.107441
                                                         0.614553      -0.197045
                                                         1.347699      -0.232253
                                                         3.575233      -0.379953
                          1       4    3pz               0.085137      -0.025250
                                                         0.130000       0.000000
                                                         0.253523      -0.107441
                                                         0.614553      -0.197045
                                                         1.347699      -0.232253
                                                         3.575233      -0.379953

                          1       5    4px               0.085137      -0.053144
                                                         0.130000       0.000000
                                                         0.253523       0.096082
                                                         0.614553       0.370808
                                                         1.347699       0.510275
                                                         3.575233       0.795890
                          1       5    4py               0.085137      -0.053144
                                                         0.130000       0.000000
                                                         0.253523       0.096082
                                                         0.614553       0.370808
                                                         1.347699       0.510275
                                                         3.575233       0.795890
                          1       5    4pz               0.085137      -0.053144
                                                         0.130000       0.000000
                                                         0.253523       0.096082
                                                         0.614553       0.370808
                                                         1.347699       0.510275
                                                         3.575233       0.795890

                          1       6    5px               0.085137       0.158350
                                                         0.130000      -0.193923
                                                         0.253523       0.045517
                                                         0.614553      -0.014020
                                                         1.347699       0.069441
                                                         3.575233       0.000000
                          1       6    5py               0.085137       0.158350
                                                         0.130000      -0.193923
                                                         0.253523       0.045517
                                                         0.614553      -0.014020
                                                         1.347699       0.069441
                                                         3.575233       0.000000
                          1       6    5pz               0.085137       0.158350
                                                         0.130000      -0.193923
                                                         0.253523       0.045517
                                                         0.614553      -0.014020
                                                         1.347699       0.069441
                                                         3.575233       0.000000

                          1       7    4dx2              0.085137       0.002211
                                                         0.130000       0.000000
                                                         0.253523       0.099150
                                                         0.614553       0.145476
                                                         1.347699       0.616787
                                                         3.575233      -0.146758
                          1       7    4dxy              0.085137       0.003829
                                                         0.130000       0.000000
                                                         0.253523       0.171733
                                                         0.614553       0.251971
                                                         1.347699       1.068307
                                                         3.575233      -0.254193
                          1       7    4dxz              0.085137       0.003829
                                                         0.130000       0.000000
                                                         0.253523       0.171733
                                                         0.614553       0.251971
                                                         1.347699       1.068307
                                                         3.575233      -0.254193
                          1       7    4dy2              0.085137       0.002211
                                                         0.130000       0.000000
                                                         0.253523       0.099150
                                                         0.614553       0.145476
                                                         1.347699       0.616787
                                                         3.575233      -0.146758
                          1       7    4dyz              0.085137       0.003829
                                                         0.130000       0.000000
                                                         0.253523       0.171733
                                                         0.614553       0.251971
                                                         1.347699       1.068307
                                                         3.575233      -0.254193
                          1       7    4dz2              0.085137       0.002211
                                                         0.130000       0.000000
                                                         0.253523       0.099150
                                                         0.614553       0.145476
                                                         1.347699       0.616787
                                                         3.575233      -0.146758

                          1       8    5dx2              0.085137       0.022218
                                                         0.130000      -0.009300
                                                         0.253523       0.032268
                                                         0.614553       0.052408
                                                         1.347699       0.198245
                                                         3.575233       0.000000
                          1       8    5dxy              0.085137       0.038483
                                                         0.130000      -0.016109
                                                         0.253523       0.055889
                                                         0.614553       0.090774
                                                         1.347699       0.343371
                                                         3.575233       0.000000
                          1       8    5dxz              0.085137       0.038483
                                                         0.130000      -0.016109
                                                         0.253523       0.055889
                                                         0.614553       0.090774
                                                         1.347699       0.343371
                                                         3.575233       0.000000
                          1       8    5dy2              0.085137       0.022218
                                                         0.130000      -0.009300
                                                         0.253523       0.032268
                                                         0.614553       0.052408
                                                         1.347699       0.198245
                                                         3.575233       0.000000
                          1       8    5dyz              0.085137       0.038483
                                                         0.130000      -0.016109
                                                         0.253523       0.055889
                                                         0.614553       0.090774
                                                         1.347699       0.343371
                                                         3.575233       0.000000
                          1       8    5dz2              0.085137       0.022218
                                                         0.130000      -0.009300
                                                         0.253523       0.032268
                                                         0.614553       0.052408
                                                         1.347699       0.198245
                                                         3.575233       0.000000

                          1       9    5fx3              0.085137       0.005551
                                                         0.130000      -0.000132
                                                         0.253523       0.005062
                                                         0.614553       0.008229
                                                         1.347699       0.002361
                                                         3.575233       0.000000
                          1       9    5fx2y             0.085137       0.012411
                                                         0.130000      -0.000295
                                                         0.253523       0.011319
                                                         0.614553       0.018401
                                                         1.347699       0.005279
                                                         3.575233       0.000000
                          1       9    5fx2z             0.085137       0.012411
                                                         0.130000      -0.000295
                                                         0.253523       0.011319
                                                         0.614553       0.018401
                                                         1.347699       0.005279
                                                         3.575233       0.000000
                          1       9    5fxy2             0.085137       0.012411
                                                         0.130000      -0.000295
                                                         0.253523       0.011319
                                                         0.614553       0.018401
                                                         1.347699       0.005279
                                                         3.575233       0.000000
                          1       9    5fxyz             0.085137       0.021497
                                                         0.130000      -0.000511
                                                         0.253523       0.019605
                                                         0.614553       0.031871
                                                         1.347699       0.009143
                                                         3.575233       0.000000
                          1       9    5fxz2             0.085137       0.012411
                                                         0.130000      -0.000295
                                                         0.253523       0.011319
                                                         0.614553       0.018401
                                                         1.347699       0.005279
                                                         3.575233       0.000000
                          1       9    5fy3              0.085137       0.005551
                                                         0.130000      -0.000132
                                                         0.253523       0.005062
                                                         0.614553       0.008229
                                                         1.347699       0.002361
                                                         3.575233       0.000000
                          1       9    5fy2z             0.085137       0.012411
                                                         0.130000      -0.000295
                                                         0.253523       0.011319
                                                         0.614553       0.018401
                                                         1.347699       0.005279
                                                         3.575233       0.000000
                          1       9    5fyz2             0.085137       0.012411
                                                         0.130000      -0.000295
                                                         0.253523       0.011319
                                                         0.614553       0.018401
                                                         1.347699       0.005279
                                                         3.575233       0.000000
                          1       9    5fz3              0.085137       0.005551
                                                         0.130000      -0.000132
                                                         0.253523       0.005062
                                                         0.614553       0.008229
                                                         1.347699       0.002361
                                                         3.575233       0.000000

     RI Auxiliary Basis Set             RI_aug-DZVP-MOLOPT-GTH-tier-2_N_RI_030_s

       Number of orbital shell sets:                                          10
       Number of orbital shells:                                              10
       Number of primitive Cartesian functions:                               10
       Number of Cartesian basis functions:                                   35
       Number of spherical basis functions:                                   30
       Norm type:                                                              2

       Normalised Cartesian orbitals:

                        Set   Shell   Orbital            Exponent    Coefficient

                          1       1    1s                0.180620       0.197463

                          2       1    5px               0.192166       0.181357
                          2       1    5py               0.192166       0.181357
                          2       1    5pz               0.192166       0.181357

                          3       1    8dx2              0.214984       0.111717
                          3       1    8dxy              0.214984       0.193500
                          3       1    8dxz              0.214984       0.193500
                          3       1    8dy2              0.214984       0.111717
                          3       1    8dyz              0.214984       0.193500
                          3       1    8dz2              0.214984       0.111717

                          4       1   10fx3              0.273802       0.079834
                          4       1   10fx2y             0.273802       0.178514
                          4       1   10fx2z             0.273802       0.178514
                          4       1   10fxy2             0.273802       0.178514
                          4       1   10fxyz             0.273802       0.309196
                          4       1   10fxz2             0.273802       0.178514
                          4       1   10fy3              0.273802       0.079834
                          4       1   10fy2z             0.273802       0.178514
                          4       1   10fyz2             0.273802       0.178514
                          4       1   10fz3              0.273802       0.079834

                          5       1    2s                0.404248       0.361324

                          6       1    6px               0.423273       0.486649
                          6       1    6py               0.423273       0.486649
                          6       1    6pz               0.423273       0.486649

                          7       1    9dx2              0.729666       0.948150
                          7       1    9dxy              0.729666       1.642244
                          7       1    9dxz              0.729666       1.642244
                          7       1    9dy2              0.729666       0.948150
                          7       1    9dyz              0.729666       1.642244
                          7       1    9dz2              0.729666       0.948150

                          8       1    7px               0.994960       1.416436
                          8       1    7py               0.994960       1.416436
                          8       1    7pz               0.994960       1.416436

                          9       1    3s                1.133703       0.783041

                         10       1    4s                3.536645       1.838035

       Atomic covalent radius [Angstrom]:                                  0.820

       Atomic van der Waals radius [Angstrom]:                             1.920

     GTH Potential information for                                    GTH-PBE-q3

       Description:                       Goedecker-Teter-Hutter pseudopotential
                                           Goedecker et al., PRB 54, 1703 (1996)
                                          Hartwigsen et al., PRB 58, 3641 (1998)
                                                      Krack, TCA 114, 145 (2005)

       Gaussian exponent of the core charge distribution:               2.848129
       Electronic configuration (s p d ...):                               2   1

       Parameters of the local part of the GTH pseudopotential:

                          rloc        C1          C2          C3          C4
                        0.418991   -5.859462    0.903756

       Parameters of the non-local part of the GTH (SOC) pseudopotential:

                   l      r(l)      h(i,j,l)
                                    k(i,j,l)
                   0    0.371320    6.297280
                   1    0.364563    0.000000
                                    0.000855

  2. Atomic kind: N                                     Number of atoms:       1

     Orbital Basis Set                                aug-DZVP-MOLOPT-GTH-tier-2

       Number of orbital shell sets:                                           1
       Number of orbital shells:                                               9
       Number of primitive Cartesian functions:                                7
       Number of Cartesian basis functions:                                   34
       Number of spherical basis functions:                                   29
       Norm type:                                                              2

       Normalised Cartesian orbitals:

                        Set   Shell   Orbital            Exponent    Coefficient

                          1       1    2s                0.039194       0.000722
                                                         0.084583       0.003860
                                                         0.222851       0.088647
                                                         0.586631       0.295369
                                                         1.512880       0.102064
                                                         3.882225      -0.265910
                                                         9.042730      -0.237404

                          1       2    3s                0.039194       0.004207
                                                         0.084583       0.069169
                                                         0.222851       0.175857
                                                         0.586631      -0.328079
                                                         1.512880      -0.043896
                                                         3.882225       0.251432
                                                         9.042730       0.259152

                          1       3    4s                0.039194       0.012017
                                                         0.084583       0.064956
                                                         0.222851       0.028638
                                                         0.586631      -0.008799
                                                         1.512880       0.318864
                                                         3.882225       0.000000
                                                         9.042730       0.000000

                          1       4    3px               0.039194      -0.000005
                                                         0.084583       0.004155
                                                         0.222851       0.063706
                                                         0.586631       0.321705
                                                         1.512880       0.665657
                                                         3.882225       0.990771
                                                         9.042730       0.822162
                          1       4    3py               0.039194      -0.000005
                                                         0.084583       0.004155
                                                         0.222851       0.063706
                                                         0.586631       0.321705
                                                         1.512880       0.665657
                                                         3.882225       0.990771
                                                         9.042730       0.822162
                          1       4    3pz               0.039194      -0.000005
                                                         0.084583       0.004155
                                                         0.222851       0.063706
                                                         0.586631       0.321705
                                                         1.512880       0.665657
                                                         3.882225       0.990771
                                                         9.042730       0.822162

                          1       5    4px               0.039194       0.000879
                                                         0.084583       0.034362
                                                         0.222851       0.136219
                                                         0.586631      -0.125283
                                                         1.512880      -0.200519
                                                         3.882225      -0.215479
                                                         9.042730      -0.251449
                          1       5    4py               0.039194       0.000879
                                                         0.084583       0.034362
                                                         0.222851       0.136219
                                                         0.586631      -0.125283
                                                         1.512880      -0.200519
                                                         3.882225      -0.215479
                                                         9.042730      -0.251449
                          1       5    4pz               0.039194       0.000879
                                                         0.084583       0.034362
                                                         0.222851       0.136219
                                                         0.586631      -0.125283
                                                         1.512880      -0.200519
                                                         3.882225      -0.215479
                                                         9.042730      -0.251449

                          1       6    5px               0.039194       0.009857
                                                         0.084583      -0.004510
                                                         0.222851       0.005737
                                                         0.586631       0.706615
                                                         1.512880      -0.292694
                                                         3.882225       0.000000
                                                         9.042730       0.000000
                          1       6    5py               0.039194       0.009857
                                                         0.084583      -0.004510
                                                         0.222851       0.005737
                                                         0.586631       0.706615
                                                         1.512880      -0.292694
                                                         3.882225       0.000000
                                                         9.042730       0.000000
                          1       6    5pz               0.039194       0.009857
                                                         0.084583      -0.004510
                                                         0.222851       0.005737
                                                         0.586631       0.706615
                                                         1.512880      -0.292694
                                                         3.882225       0.000000
                                                         9.042730       0.000000

                          1       7    4dx2              0.039194      -0.000086
                                                         0.084583      -0.000857
                                                         0.222851       0.017840
                                                         0.586631       0.456348
                                                         1.512880       0.873643
                                                         3.882225       0.532064
                                                         9.042730       1.099742
                          1       7    4dxy              0.039194      -0.000150
                                                         0.084583      -0.001484
                                                         0.222851       0.030900
                                                         0.586631       0.790419
                                                         1.512880       1.513195
                                                         3.882225       0.921562
                                                         9.042730       1.904809
                          1       7    4dxz              0.039194      -0.000150
                                                         0.084583      -0.001484
                                                         0.222851       0.030900
                                                         0.586631       0.790419
                                                         1.512880       1.513195
                                                         3.882225       0.921562
                                                         9.042730       1.904809
                          1       7    4dy2              0.039194      -0.000086
                                                         0.084583      -0.000857
                                                         0.222851       0.017840
                                                         0.586631       0.456348
                                                         1.512880       0.873643
                                                         3.882225       0.532064
                                                         9.042730       1.099742
                          1       7    4dyz              0.039194      -0.000150
                                                         0.084583      -0.001484
                                                         0.222851       0.030900
                                                         0.586631       0.790419
                                                         1.512880       1.513195
                                                         3.882225       0.921562
                                                         9.042730       1.904809
                          1       7    4dz2              0.039194      -0.000086
                                                         0.084583      -0.000857
                                                         0.222851       0.017840
                                                         0.586631       0.456348
                                                         1.512880       0.873643
                                                         3.882225       0.532064
                                                         9.042730       1.099742

                          1       8    5dx2              0.039194       0.005298
                                                         0.084583       0.000394
                                                         0.222851       0.022199
                                                         0.586631      -0.128917
                                                         1.512880       0.000000
                                                         3.882225       0.000000
                                                         9.042730       0.000000
                          1       8    5dxy              0.039194       0.009176
                                                         0.084583       0.000682
                                                         0.222851       0.038450
                                                         0.586631      -0.223290
                                                         1.512880       0.000000
                                                         3.882225       0.000000
                                                         9.042730       0.000000
                          1       8    5dxz              0.039194       0.009176
                                                         0.084583       0.000682
                                                         0.222851       0.038450
                                                         0.586631      -0.223290
                                                         1.512880       0.000000
                                                         3.882225       0.000000
                                                         9.042730       0.000000
                          1       8    5dy2              0.039194       0.005298
                                                         0.084583       0.000394
                                                         0.222851       0.022199
                                                         0.586631      -0.128917
                                                         1.512880       0.000000
                                                         3.882225       0.000000
                                                         9.042730       0.000000
                          1       8    5dyz              0.039194       0.009176
                                                         0.084583       0.000682
                                                         0.222851       0.038450
                                                         0.586631      -0.223290
                                                         1.512880       0.000000
                                                         3.882225       0.000000
                                                         9.042730       0.000000
                          1       8    5dz2              0.039194       0.005298
                                                         0.084583       0.000394
                                                         0.222851       0.022199
                                                         0.586631      -0.128917
                                                         1.512880       0.000000
                                                         3.882225       0.000000
                                                         9.042730       0.000000

                          1       9    5fx3              0.039194      -0.000489
                                                         0.084583      -0.000029
                                                         0.222851      -0.000184
                                                         0.586631       0.365702
                                                         1.512880       0.372507
                                                         3.882225       0.355059
                                                         9.042730       0.000000
                          1       9    5fx2y             0.039194      -0.001093
                                                         0.084583      -0.000065
                                                         0.222851      -0.000411
                                                         0.586631       0.817734
                                                         1.512880       0.832952
                                                         3.882225       0.793935
                                                         9.042730       0.000000
                          1       9    5fx2z             0.039194      -0.001093
                                                         0.084583      -0.000065
                                                         0.222851      -0.000411
                                                         0.586631       0.817734
                                                         1.512880       0.832952
                                                         3.882225       0.793935
                                                         9.042730       0.000000
                          1       9    5fxy2             0.039194      -0.001093
                                                         0.084583      -0.000065
                                                         0.222851      -0.000411
                                                         0.586631       0.817734
                                                         1.512880       0.832952
                                                         3.882225       0.793935
                                                         9.042730       0.000000
                          1       9    5fxyz             0.039194      -0.001893
                                                         0.084583      -0.000113
                                                         0.222851      -0.000711
                                                         0.586631       1.416357
                                                         1.512880       1.442714
                                                         3.882225       1.375136
                                                         9.042730       0.000000
                          1       9    5fxz2             0.039194      -0.001093
                                                         0.084583      -0.000065
                                                         0.222851      -0.000411
                                                         0.586631       0.817734
                                                         1.512880       0.832952
                                                         3.882225       0.793935
                                                         9.042730       0.000000
                          1       9    5fy3              0.039194      -0.000489
                                                         0.084583      -0.000029
                                                         0.222851      -0.000184
                                                         0.586631       0.365702
                                                         1.512880       0.372507
                                                         3.882225       0.355059
                                                         9.042730       0.000000
                          1       9    5fy2z             0.039194      -0.001093
                                                         0.084583      -0.000065
                                                         0.222851      -0.000411
                                                         0.586631       0.817734
                                                         1.512880       0.832952
                                                         3.882225       0.793935
                                                         9.042730       0.000000
                          1       9    5fyz2             0.039194      -0.001093
                                                         0.084583      -0.000065
                                                         0.222851      -0.000411
                                                         0.586631       0.817734
                                                         1.512880       0.832952
                                                         3.882225       0.793935
                                                         9.042730       0.000000
                          1       9    5fz3              0.039194      -0.000489
                                                         0.084583      -0.000029
                                                         0.222851      -0.000184
                                                         0.586631       0.365702
                                                         1.512880       0.372507
                                                         3.882225       0.355059
                                                         9.042730       0.000000

     RI Auxiliary Basis Set             RI_aug-DZVP-MOLOPT-GTH-tier-2_N_RI_044_s

       Number of orbital shell sets:                                          12
       Number of orbital shells:                                              12
       Number of primitive Cartesian functions:                               12
       Number of Cartesian basis functions:                                   56
       Number of spherical basis functions:                                   44
       Norm type:                                                              2

       Normalised Cartesian orbitals:

                        Set   Shell   Orbital            Exponent    Coefficient

                          1       1    1s                0.216310       0.226056

                          2       1    8dx2              0.265130       0.161236
                          2       1    8dxy              0.265130       0.279270
                          2       1    8dxz              0.265130       0.279270
                          2       1    8dy2              0.265130       0.161236
                          2       1    8dyz              0.265130       0.279270
                          2       1    8dz2              0.265130       0.161236

                          3       1    5px               0.268516       0.275520
                          3       1    5py               0.268516       0.275520
                          3       1    5pz               0.268516       0.275520

                          4       1    2s                0.713648       0.553379

                          5       1    9dx2              1.074492       1.866445
                          5       1    9dxy              1.074492       3.232778
                          5       1    9dxz              1.074492       3.232778
                          5       1    9dy2              1.074492       1.866445
                          5       1    9dyz              1.074492       3.232778
                          5       1    9dz2              1.074492       1.866445

                          6       1   12gx4              1.149451       1.632241
                          6       1   12gx3y             1.149451       4.318503
                          6       1   12gx3z             1.149451       4.318503
                          6       1   12gx2y2            1.149451       5.575164
                          6       1   12gx2yz            1.149451       9.656467
                          6       1   12gx2z2            1.149451       5.575164
                          6       1   12gxy3             1.149451       4.318503
                          6       1   12gxy2z            1.149451       9.656467
                          6       1   12gxyz2            1.149451       9.656467
                          6       1   12gxz3             1.149451       4.318503
                          6       1   12gy4              1.149451       1.632241
                          6       1   12gy3z             1.149451       4.318503
                          6       1   12gy2z2            1.149451       5.575164
                          6       1   12gyz3             1.149451       4.318503
                          6       1   12gz4              1.149451       1.632241

                          7       1    6px               1.180204       1.753422
                          7       1    6py               1.180204       1.753422
                          7       1    6pz               1.180204       1.753422

                          8       1   11fx3              1.269836       2.519920
                          8       1   11fx2y             1.269836       5.634713
                          8       1   11fx2z             1.269836       5.634713
                          8       1   11fxy2             1.269836       5.634713
                          8       1   11fxyz             1.269836       9.759610
                          8       1   11fxz2             1.269836       5.634713
                          8       1   11fy3              1.269836       2.519920
                          8       1   11fy2z             1.269836       5.634713
                          8       1   11fyz2             1.269836       5.634713
                          8       1   11fz3              1.269836       2.519920

                          9       1    3s                1.803174       1.109017

                         10       1    7px               1.966699       3.319803
                         10       1    7py               1.966699       3.319803
                         10       1    7pz               1.966699       3.319803

                         11       1   10dx2              3.446878      14.351745
                         11       1   10dxy              3.446878      24.857951
                         11       1   10dxz              3.446878      24.857951
                         11       1   10dy2              3.446878      14.351745
                         11       1   10dyz              3.446878      24.857951
                         11       1   10dz2              3.446878      14.351745

                         12       1    4s                3.911976       1.982473

       Atomic covalent radius [Angstrom]:                                  0.750

       Atomic van der Waals radius [Angstrom]:                             1.550

     GTH Potential information for                                    GTH-PBE-q5

       Description:                       Goedecker-Teter-Hutter pseudopotential
                                           Goedecker et al., PRB 54, 1703 (1996)
                                          Hartwigsen et al., PRB 58, 3641 (1998)
                                                      Krack, TCA 114, 145 (2005)

       Gaussian exponent of the core charge distribution:               6.208322
       Electronic configuration (s p d ...):                               2   3

       Parameters of the local part of the GTH pseudopotential:

                          rloc        C1          C2          C3          C4
                        0.283791  -12.415226    1.868096

       Parameters of the non-local part of the GTH (SOC) pseudopotential:

                   l      r(l)      h(i,j,l)
                                    k(i,j,l)
                   0    0.255405   13.630263
                   1    0.245495    0.000000
                                    0.004148


 MOLECULE KIND INFORMATION


 All atoms are their own molecule, skipping detailed information


 TOTAL NUMBERS AND MAXIMUM NUMBERS

  Total number of            - Atomic kinds:                                   2
                             - Atoms:                                          2
                             - Shell sets:                                     2
                             - Shells:                                        18
                             - Primitive Cartesian functions:                 13
                             - Cartesian basis functions:                     68
                             - Spherical basis functions:                     58

  Maximum angular momentum of- Orbital basis functions:                        3
                             - Local part of the GTH pseudopotential:          2
                             - Non-local part of the GTH pseudopotential:      1


 MODULE QUICKSTEP: ATOMIC COORDINATES IN ANGSTROM

   Atom Kind Element         X             Y             Z       Z(eff)     Mass
      1    1 B     5      0.000000      1.449303      7.500000   3.0000  10.8110
      2    2 N     7      1.255134      0.724652      7.500000   5.0000  14.0067



 SCF PARAMETERS         Density guess:                                    ATOMIC
                        --------------------------------------------------------
                        max_scf:                                             500
                        max_scf_history:                                       0
                        max_diis:                                              4
                        --------------------------------------------------------
                        eps_scf:                                        1.00E-09
                        eps_scf_history:                                0.00E+00
                        eps_diis:                                       1.00E-01
                        eps_eigval:                                     1.00E-05
                        --------------------------------------------------------
                        level_shift [a.u.]:                             0.000000
                        added MOs                                        54    0
                        --------------------------------------------------------
                        Mixing method:                            BROYDEN_MIXING
                                                charge density mixing in g-space
                        --------------------------------------------------------
                        No outer SCF

 PW_GRID| Information for grid number                                          1
 PW_GRID| Grid distributed over                                   192 processors
 PW_GRID| Real space group dimensions                                    12   16
 PW_GRID| the grid is blocked:                                               YES
 PW_GRID| Cutoff [a.u.]                                                    500.0
 PW_GRID| spherical cutoff:                                                   NO
 PW_GRID|   Bounds   1            -24      23                Points:          48
 PW_GRID|   Bounds   2            -24      23                Points:          48
 PW_GRID|   Bounds   3           -144     143                Points:         288
 PW_GRID| Volume element (a.u.^3)  0.8323E-03     Volume (a.u.^3)       552.2884
 PW_GRID| Grid span                                                    FULLSPACE
 PW_GRID|   Distribution                         Average         Max         Min
 PW_GRID|   G-Vectors                             3456.0        3456        3456
 PW_GRID|   G-Rays                                  72.0          72          72
 PW_GRID|   Real Space Points                     3456.0        3456        3456

 PW_GRID| Information for grid number                                          2
 PW_GRID| Number of the reference grid                                         1
 PW_GRID| Grid distributed over                                   192 processors
 PW_GRID| Real space group dimensions                                    12   16
 PW_GRID| the grid is blocked:                                                NO
 PW_GRID| Cutoff [a.u.]                                                    166.7
 PW_GRID| spherical cutoff:                                                   NO
 PW_GRID|   Bounds   1            -13      13                Points:          27
 PW_GRID|   Bounds   2            -13      13                Points:          27
 PW_GRID|   Bounds   3            -90      89                Points:         180
 PW_GRID| Volume element (a.u.^3)  0.4209E-02     Volume (a.u.^3)       552.2884
 PW_GRID| Grid span                                                    FULLSPACE
 PW_GRID|   Distribution                         Average         Max         Min
 PW_GRID|   G-Vectors                              683.4        1944           0
 PW_GRID|   G-Rays                                  25.3          72           0
 PW_GRID|   Real Space Points                      683.4        1080         360

 PW_GRID| Information for grid number                                          3
 PW_GRID| Number of the reference grid                                         1
 PW_GRID| Grid distributed over                                   192 processors
 PW_GRID| Real space group dimensions                                    12   16
 PW_GRID| the grid is blocked:                                                NO
 PW_GRID| Cutoff [a.u.]                                                     55.6
 PW_GRID| spherical cutoff:                                                   NO
 PW_GRID|   Bounds   1             -7       7                Points:          15
 PW_GRID|   Bounds   2             -7       7                Points:          15
 PW_GRID|   Bounds   3            -48      47                Points:          96
 PW_GRID| Volume element (a.u.^3)  0.2557E-01     Volume (a.u.^3)       552.2884
 PW_GRID| Grid span                                                    FULLSPACE
 PW_GRID|   Distribution                         Average         Max         Min
 PW_GRID|   G-Vectors                              112.5        1080           0
 PW_GRID|   G-Rays                                   7.5          72           0
 PW_GRID|   Real Space Points                      112.5         192           0

 PW_GRID| Information for grid number                                          4
 PW_GRID| Number of the reference grid                                         1
 PW_GRID| Grid distributed over                                   192 processors
 PW_GRID| Real space group dimensions                                    12   16
 PW_GRID| the grid is blocked:                                                NO
 PW_GRID| Cutoff [a.u.]                                                     18.5
 PW_GRID| spherical cutoff:                                                   NO
 PW_GRID|   Bounds   1             -4       4                Points:           9
 PW_GRID|   Bounds   2             -4       4                Points:           9
 PW_GRID|   Bounds   3            -30      29                Points:          60
 PW_GRID| Volume element (a.u.^3)  0.1136         Volume (a.u.^3)       552.2884
 PW_GRID| Grid span                                                    FULLSPACE
 PW_GRID|   Distribution                         Average         Max         Min
 PW_GRID|   G-Vectors                               25.3         648           0
 PW_GRID|   G-Rays                                   2.8          72           0
 PW_GRID|   Real Space Points                       25.3          60           0

 POISSON| Solver                                                        PERIODIC
 POISSON| Periodicity                                                        XYZ

 *** WARNING in pw_env_methods.F:744 :: The selected periodicities in the ***
 *** sections &CELL and &POISSON do not match                             ***


 RS_GRID| Information for grid number                                          1
 RS_GRID|   Bounds   1            -24      23                Points:          48
 RS_GRID|   Bounds   2            -24      23                Points:          48
 RS_GRID|   Bounds   3           -144     143                Points:         288
 RS_GRID| Real space distribution over                                192 groups
 RS_GRID| Real space distribution along direction                              3
 RS_GRID| Border size                                                         54
 RS_GRID|   Distribution                         Average         Max         Min
 RS_GRID|   Planes                                 109.5         110         109

 RS_GRID| Information for grid number                                          2
 RS_GRID|   Bounds   1            -13      13                Points:          27
 RS_GRID|   Bounds   2            -13      13                Points:          27
 RS_GRID|   Bounds   3            -90      89                Points:         180
 RS_GRID| Real space fully replicated
 RS_GRID| Group size                                                           1

 RS_GRID| Information for grid number                                          3
 RS_GRID|   Bounds   1             -7       7                Points:          15
 RS_GRID|   Bounds   2             -7       7                Points:          15
 RS_GRID|   Bounds   3            -48      47                Points:          96
 RS_GRID| Real space fully replicated
 RS_GRID| Group size                                                           1

 RS_GRID| Information for grid number                                          4
 RS_GRID|   Bounds   1             -4       4                Points:           9
 RS_GRID|   Bounds   2             -4       4                Points:           9
 RS_GRID|   Bounds   3            -30      29                Points:          60
 RS_GRID| Real space fully replicated
 RS_GRID| Group size                                                           1

 Number of electrons:                                                          8
 Number of occupied orbitals:                                                  4
 Number of molecular orbitals:                                                58

 Number of orbital functions:                                                 58
 Number of independent orbital functions:                                     58

 Extrapolation method: initial_guess

 Atomic guess: The first density matrix is obtained in terms of atomic orbitals
               and electronic configurations assigned to each atomic kind

 Guess for atomic kind: B

 Electronic structure
    Total number of core electrons                                          2.00
    Total number of valence electrons                                       3.00
    Total number of electrons                                               5.00
    Multiplicity                                                   not specified
    S   [  2.00] 2.00
    P      1.00


 *******************************************************************************
                  Iteration          Convergence                     Energy [au]
 *******************************************************************************
                          1        0.238502E-01                  -2.532523605015
                          2        0.868371E-02                  -2.533211274467
                          3        0.641406E-03                  -2.533338187729
                          4        0.394451E-06                  -2.533338838311

 Energy components [Hartree]           Total Energy ::           -2.533338838311
                                        Band Energy ::           -0.754978817885
                                     Kinetic Energy ::            1.374329365795
                                   Potential Energy ::           -3.907668204106
                                      Virial (-V/T) ::            2.843327299381
                                        Core Energy ::           -3.762624187964
                                          XC Energy ::           -0.788597370443
                                     Coulomb Energy ::            2.017882720095
                       Total Pseudopotential Energy ::           -5.166089023748
                       Local Pseudopotential Energy ::           -5.577447498970
                    Nonlocal Pseudopotential Energy ::            0.411358475222
                                        Confinement ::            0.291354699889

 Orbital energies  State     L     Occupation   Energy[a.u.]          Energy[eV]

                       1     0          2.000      -0.323094           -8.791847

                       1     1          1.000      -0.108790           -2.960325


 Total Electron Density at R=0:                                         0.000358

 Guess for atomic kind: N

 Electronic structure
    Total number of core electrons                                          2.00
    Total number of valence electrons                                       5.00
    Total number of electrons                                               7.00
    Multiplicity                                                   not specified
    S   [  2.00] 2.00
    P      3.00


 *******************************************************************************
                  Iteration          Convergence                     Energy [au]
 *******************************************************************************
                          1        0.262404                      -9.510111581656
                          2        0.211275                      -9.518507219010
                          3        0.249617E-02                  -9.546187337244
                          4        0.392671E-03                  -9.546190191956
                          5        0.194987E-05                  -9.546190243218
                          6        0.885473E-06                  -9.546190243219

 Energy components [Hartree]           Total Energy ::           -9.546190243219
                                        Band Energy ::           -2.057369820266
                                     Kinetic Energy ::            6.761936359891
                                   Potential Energy ::          -16.308126603111
                                      Virial (-V/T) ::            2.411753931883
                                        Core Energy ::          -15.540770774774
                                          XC Energy ::           -2.162428932547
                                     Coulomb Energy ::            8.157009464102
                       Total Pseudopotential Energy ::          -22.340008183988
                       Local Pseudopotential Energy ::          -23.273409472551
                    Nonlocal Pseudopotential Energy ::            0.933401288563
                                        Confinement ::            0.373010493229

 Orbital energies  State     L     Occupation   Energy[a.u.]          Energy[eV]

                       1     0          2.000      -0.663956          -18.067164

                       1     1          3.000      -0.243153           -6.616517


 Total Electron Density at R=0:                                         0.000017
 Re-scaling the density matrix to get the right number of electrons
                  # Electrons              Trace(P)               Scaling factor
                            8                 8.000                        1.000


 SCF WAVEFUNCTION OPTIMIZATION

  Step     Update method      Time    Convergence         Total energy    Change
  ------------------------------------------------------------------------------
     1 NoMix/Diag. 0.10E+00   11.4     1.16782150       -12.9003336554 -1.29E+01
     2 Broy./Diag. 0.10E+00   11.2     0.03983774       -11.1127830567  1.79E+00
     3 Broy./Diag. 0.10E+00   11.7     0.24711396       -11.8343879284 -7.22E-01
     4 Broy./Diag. 0.10E+00   11.0     0.00402783       -12.6224444638 -7.88E-01
     5 Broy./Diag. 0.10E+00   11.2     0.02827527       -12.6940023445 -7.16E-02
     6 Broy./Diag. 0.10E+00   11.5     0.00185027       -12.7613747854 -6.74E-02
     7 Broy./Diag. 0.10E+00   11.8     0.02161055       -12.8082859774 -4.69E-02
     8 Broy./Diag. 0.10E+00   11.2     0.00210764       -12.8492989808 -4.10E-02
     9 Broy./Diag. 0.10E+00   11.4     0.03021756       -12.8553574453 -6.06E-03
    10 Broy./Diag. 0.10E+00   11.7     0.00119562       -12.8733610531 -1.80E-02
    11 Broy./Diag. 0.10E+00   11.3     0.00937735       -12.8670710846  6.29E-03
    12 Broy./Diag. 0.10E+00   11.1     0.00050611       -12.8723575405 -5.29E-03
    13 Broy./Diag. 0.10E+00   11.6     0.00707584       -12.8765214804 -4.16E-03
    14 Broy./Diag. 0.10E+00   11.3     0.00038654       -12.8784189307 -1.90E-03
    15 Broy./Diag. 0.10E+00   10.9     0.00604787       -12.8779947086  4.24E-04
    16 Broy./Diag. 0.10E+00   11.2     0.00055262       -12.8787239739 -7.29E-04
    17 Broy./Diag. 0.10E+00   11.3     0.00137148       -12.8787730592 -4.91E-05
    18 Broy./Diag. 0.10E+00   11.9     0.00044109       -12.8789235171 -1.50E-04
    19 Broy./Diag. 0.10E+00   11.6     0.00030924       -12.8781235018  8.00E-04
    20 Broy./Diag. 0.10E+00   11.6     0.00062639       -12.8781170591  6.44E-06
    21 Broy./Diag. 0.10E+00   11.0     0.00013281       -12.8784437875 -3.27E-04
    22 Broy./Diag. 0.10E+00   11.1     0.00033782       -12.8787803190 -3.37E-04
    23 Broy./Diag. 0.10E+00   11.3     0.00011102       -12.8790048971 -2.25E-04
    24 Broy./Diag. 0.10E+00   11.3     0.00012660       -12.8789887828  1.61E-05
    25 Broy./Diag. 0.10E+00   11.4     0.00004088       -12.8789383785  5.04E-05
    26 Broy./Diag. 0.10E+00   11.8     0.00005842       -12.8789197578  1.86E-05
    27 Broy./Diag. 0.10E+00   11.4     0.00010054       -12.8788825295  3.72E-05
    28 Broy./Diag. 0.10E+00   11.0     0.00027168       -12.8788529626  2.96E-05
    29 Broy./Diag. 0.10E+00   10.8     0.00004184       -12.8788541323 -1.17E-06
    30 Broy./Diag. 0.10E+00   11.1     0.00003083       -12.8788345872  1.95E-05
    31 Broy./Diag. 0.10E+00   11.1     0.00000663       -12.8788387574 -4.17E-06
    32 Broy./Diag. 0.10E+00   11.5     0.00001267       -12.8788419751 -3.22E-06
    33 Broy./Diag. 0.10E+00   11.4     0.00000519       -12.8788459943 -4.02E-06
    34 Broy./Diag. 0.10E+00   11.7     0.00003697       -12.8788341014  1.19E-05
    35 Broy./Diag. 0.10E+00   11.2     0.00000048       -12.8788251245  8.98E-06
    36 Broy./Diag. 0.10E+00   11.3     0.00000193       -12.8788295031 -4.38E-06
    37 Broy./Diag. 0.10E+00   11.2     0.00000336       -12.8788320698 -2.57E-06
    38 Broy./Diag. 0.10E+00   10.9     0.00000305       -12.8788314482  6.22E-07
    39 Broy./Diag. 0.10E+00   10.9     0.00000093       -12.8788302646  1.18E-06
    40 Broy./Diag. 0.10E+00   11.4     0.00000384       -12.8788303557 -9.10E-08
    41 Broy./Diag. 0.10E+00   11.2     0.00000135       -12.8788298396  5.16E-07
    42 Broy./Diag. 0.10E+00   12.5     0.00000090       -12.8788296169  2.23E-07
    43 Broy./Diag. 0.10E+00   11.0     0.00000080       -12.8788294765  1.40E-07
    44 Broy./Diag. 0.10E+00   10.7     0.00000079       -12.8788289536  5.23E-07
    45 Broy./Diag. 0.10E+00   11.1     0.00000020       -12.8788288696  8.40E-08
    46 Broy./Diag. 0.10E+00   11.1     0.00000066       -12.8788296550 -7.85E-07
    47 Broy./Diag. 0.10E+00   11.9     0.00000042       -12.8788305011 -8.46E-07
    48 Broy./Diag. 0.10E+00   11.8     0.00000072       -12.8788300536  4.47E-07
    49 Broy./Diag. 0.10E+00   11.7     0.00000012       -12.8788294748  5.79E-07
    50 Broy./Diag. 0.10E+00   12.2     0.00000025       -12.8788294191  5.58E-08
    51 Broy./Diag. 0.10E+00   11.1     0.00000025       -12.8788294000  1.91E-08
    52 Broy./Diag. 0.10E+00   11.1     0.00000008       -12.8788294082 -8.21E-09
    53 Broy./Diag. 0.10E+00   11.2     0.00000031       -12.8788293612  4.70E-08
    54 Broy./Diag. 0.10E+00   10.9     0.00000011       -12.8788293789 -1.77E-08
    55 Broy./Diag. 0.10E+00   11.0     0.00000013       -12.8788293534  2.54E-08
    56 Broy./Diag. 0.10E+00   11.1     0.00000008       -12.8788294074 -5.39E-08
    57 Broy./Diag. 0.10E+00   11.5     0.00000009       -12.8788295049 -9.75E-08
    58 Broy./Diag. 0.10E+00   12.3     0.00000014       -12.8788294852  1.96E-08
    59 Broy./Diag. 0.10E+00   11.1     0.00000007       -12.8788293878  9.74E-08
    60 Broy./Diag. 0.10E+00   11.1     0.00000005       -12.8788293700  1.78E-08
    61 Broy./Diag. 0.10E+00   11.5     0.00000006       -12.8788294103 -4.04E-08
    62 Broy./Diag. 0.10E+00   11.0     0.00000002       -12.8788294414 -3.11E-08
    63 Broy./Diag. 0.10E+00   11.4     0.00000003       -12.8788294434 -2.03E-09
    64 Broy./Diag. 0.10E+00   11.4     0.00000006       -12.8788294443 -9.32E-10
    65 Broy./Diag. 0.10E+00   11.2     0.00000004       -12.8788294376  6.73E-09
    66 Broy./Diag. 0.10E+00   11.9     0.00000001       -12.8788294395 -1.94E-09
    67 Broy./Diag. 0.10E+00   10.9     0.00000003       -12.8788294714 -3.19E-08
    68 Broy./Diag. 0.10E+00   11.3     0.00000004       -12.8788294835 -1.20E-08
    69 Broy./Diag. 0.10E+00   11.2     0.00000005       -12.8788294444  3.91E-08
    70 Broy./Diag. 0.10E+00   11.1     0.00000002       -12.8788294191  2.53E-08
    71 Broy./Diag. 0.10E+00   11.6     0.00000003       -12.8788294562 -3.71E-08
    72 Broy./Diag. 0.10E+00   11.4     0.00000001       -12.8788294908 -3.46E-08
    73 Broy./Diag. 0.10E+00   10.9     0.00000002       -12.8788294897  1.12E-09
    74 Broy./Diag. 0.10E+00   11.9     0.00000002       -12.8788294817  8.06E-09
    75 Broy./Diag. 0.10E+00   10.9     0.00000003       -12.8788294704  1.13E-08
    76 Broy./Diag. 0.10E+00   11.3     0.00000002       -12.8788294607  9.61E-09
    77 Broy./Diag. 0.10E+00   11.0     0.00000003       -12.8788294710 -1.03E-08
    78 Broy./Diag. 0.10E+00   11.2     0.00000003       -12.8788294817 -1.07E-08
    79 Broy./Diag. 0.10E+00   11.7     0.00000001       -12.8788294625  1.92E-08
    80 Broy./Diag. 0.10E+00   11.2     0.00000002       -12.8788294538  8.65E-09
    81 Broy./Diag. 0.10E+00   11.4     0.00000004       -12.8788294811 -2.72E-08
    82 Broy./Diag. 0.10E+00   11.8     0.00000001       -12.8788295064 -2.53E-08
    83 Broy./Diag. 0.10E+00   11.3     0.00000002       -12.8788294974  9.03E-09
    84 Broy./Diag. 0.10E+00   11.3     0.00000002       -12.8788294809  1.65E-08
    85 Broy./Diag. 0.10E+00   11.6     5.9994E-09       -12.8788294715  9.38E-09
    86 Broy./Diag. 0.10E+00   11.3     4.8123E-09       -12.8788294683  3.20E-09
    87 Broy./Diag. 0.10E+00   11.7     7.6285E-09       -12.8788294682  1.78E-10
    88 Broy./Diag. 0.10E+00   11.4     3.7994E-09       -12.8788294707 -2.52E-09
    89 Broy./Diag. 0.10E+00   11.5     2.6577E-09       -12.8788294701  5.59E-10
    90 Broy./Diag. 0.10E+00   11.6     1.7755E-09       -12.8788294666  3.56E-09
    91 Broy./Diag. 0.10E+00   11.2     3.1216E-09       -12.8788294678 -1.26E-09
    92 Broy./Diag. 0.10E+00   11.5     3.0962E-09       -12.8788294722 -4.40E-09
    93 Broy./Diag. 0.10E+00   11.4     3.6167E-09       -12.8788294722  5.83E-11
    94 Broy./Diag. 0.10E+00   11.4     3.5385E-09       -12.8788294681  4.06E-09
    95 Broy./Diag. 0.10E+00   11.5     1.5831E-09       -12.8788294646  3.52E-09
    96 Broy./Diag. 0.10E+00   11.6     2.3617E-09       -12.8788294634  1.21E-09
    97 Broy./Diag. 0.10E+00   11.6     2.1215E-09       -12.8788294626  7.78E-10
    98 Broy./Diag. 0.10E+00   11.4     2.1914E-09       -12.8788294639 -1.30E-09
    99 Broy./Diag. 0.10E+00   11.2     6.1623E-09       -12.8788294654 -1.46E-09
   100 Broy./Diag. 0.10E+00   11.4     2.9875E-09       -12.8788294634  1.92E-09
   101 Broy./Diag. 0.10E+00   11.0     1.3024E-09       -12.8788294631  3.85E-10
   102 Broy./Diag. 0.10E+00   11.2     2.0815E-09       -12.8788294670 -3.95E-09
   103 Broy./Diag. 0.10E+00   11.4     7.9194E-10       -12.8788294700 -3.00E-09

  *** SCF run converged in   103 steps ***


  Electronic density on regular grids:         -8.0000000000        0.0000000000
  Core density on regular grids:                8.0000000000       -0.0000000000
  Total charge density on r-space grids:       -0.0000000000
  Total charge density g-space grids:          -0.0000000000

  Overlap energy of the core charge distribution:               0.00000102720762
  Self energy of the core charge distribution:                -30.91005782344042
  Core Hamiltonian energy:                                      9.49972371836710
  Hartree energy:                                              12.21317052322847
  Exchange-correlation energy:                                 -3.68166691536588

  Total energy:                                               -12.87882947000311

 !-----------------------------------------------------------------------------!
                     Mulliken Population Analysis

 #  Atom  Element  Kind  Atomic population                           Net charge
       1     B        1          2.664389                              0.335611
       2     N        2          5.335611                             -0.335611
 # Total charge                              8.000000                  0.000000

 !-----------------------------------------------------------------------------!

 !-----------------------------------------------------------------------------!
                           Hirshfeld Charges

  #Atom  Element  Kind  Ref Charge     Population                    Net charge
      1       B      1       3.000          2.608                         0.392
      2       N      2       5.000          5.392                        -0.392

  Total Charge                                                            0.000
 !-----------------------------------------------------------------------------!
  
 -------------------------------------------------------------------------------
 -                                                                             -
 -                          BANDSTRUCTURE CALCULATION                          -
 -                                                                             -
 -------------------------------------------------------------------------------
  
 Number of occupied molecular orbitals (MOs) = Number of occupied bands        4
 Number of unoccupied (= virtual) MOs = Number of unoccupied bands            54
 Number of Gaussian basis functions for MOs                                   58
 Number of cells considered in the DFT calculation                           535
 Number of cells for G, χ, W, Σ                                             2209
 Number of special k-points for the bandstructure                              4
 Number of k-points for the bandstructure                                   2452
  
 -------------------------------------------------------------------------------
 -                                                                             -
 -                                GW CALCULATION                               -
 -                                                                             -
 -------------------------------------------------------------------------------
  
 Input: Number of time/freq. points                                           30
 Input: ω_max for fitting Σ(iω) (eV)                                        10.0
 Input: Filter threshold for sparse tensor operations                    1.0E-11
 Input: Apply Hedin shift                                                      F
  
 Number of auxiliary Gaussian basis functions for χ, ε, W                     74
 Cutoff radius for the truncated Coulomb operator in Σ^x:                 51.1 Å
 Cutoff radius for the truncated Coulomb operator in RI metric:            7.0 Å
 Regularization parameter of RI                                          1.0E-02
 Regularization parameter of minimax grids                               1.0E-06
 Lattice sum size for V(k):                                                    3
  
 K-point mesh 1 for χ, ε, W                                          192 192   1
 K-point mesh 2 for χ, ε, W (for k-point extrapolation of W)         384 384   1
 Approximate the k-point extrapolation                                         F
 Radius of atomic orbitals                                                15.7 Å
 Radius of RI functions                                                    7.3 Å
 Number of cells for 3c integrals                                            445
 Number of cell pairs for 3c integrals                                     68320
 
 Input: Available memory per MPI process                                128.0 GB
 Used memory per MPI process before GW run                                0.5 GB
 Memory of three-center integrals                                       136.1 GB
 Group size for tensor operations                                              2
 The requested group size is > 1 which can lead to bad performance.
 Using more memory per MPI process might improve performance.
 (Also increase MEMORY_PER_PROC when using more memory per process.)
 Number of cells ΔR                                                         1734
 Min. abs. eigenvalue of RI metric matrix M(k)                           1.7E-05
 Max. abs. eigenvalue of RI metric matrix M(k)                           1.8E+03
 Max. condition number of M(k)                                           1.6E+07
 
 SCF direct band gap (eV)                                                   4.69
 Max. SCF eigval diff. (eV)                                            272135.24
 E-Range for minimax grid                                               57964.64
 Number of Padé parameters for analytic continuation:                          5
 
 Computed χ^R(iτ) for time point            1 / 30,      Execution time 1171.6 s
 Computed χ^R(iτ) for time point            2 / 30,      Execution time  845.7 s
 Computed χ^R(iτ) for time point            3 / 30,      Execution time  830.8 s
 Computed χ^R(iτ) for time point            4 / 30,      Execution time  831.2 s
 Computed χ^R(iτ) for time point            5 / 30,      Execution time  823.4 s
 Computed χ^R(iτ) for time point            6 / 30,      Execution time  831.5 s
 Computed χ^R(iτ) for time point            7 / 30,      Execution time  831.8 s
 Computed χ^R(iτ) for time point            8 / 30,      Execution time  811.6 s
 Computed χ^R(iτ) for time point            9 / 30,      Execution time  818.7 s
 Computed χ^R(iτ) for time point           10 / 30,      Execution time  817.2 s
 Computed χ^R(iτ) for time point           11 / 30,      Execution time  825.8 s
 Computed χ^R(iτ) for time point           12 / 30,      Execution time  812.8 s
 Computed χ^R(iτ) for time point           13 / 30,      Execution time  811.4 s
 Computed χ^R(iτ) for time point           14 / 30,      Execution time  818.8 s
 Computed χ^R(iτ) for time point           15 / 30,      Execution time  812.3 s
 Computed χ^R(iτ) for time point           16 / 30,      Execution time  816.9 s
 Computed χ^R(iτ) for time point           17 / 30,      Execution time  802.5 s
 Computed χ^R(iτ) for time point           18 / 30,      Execution time  795.2 s
 Computed χ^R(iτ) for time point           19 / 30,      Execution time  779.5 s
 Computed χ^R(iτ) for time point           20 / 30,      Execution time  751.2 s
 Computed χ^R(iτ) for time point           21 / 30,      Execution time  741.5 s
 Computed χ^R(iτ) for time point           22 / 30,      Execution time  720.9 s
 Computed χ^R(iτ) for time point           23 / 30,      Execution time  700.6 s
 Computed χ^R(iτ) for time point           24 / 30,      Execution time  677.5 s
 Computed χ^R(iτ) for time point           25 / 30,      Execution time  648.3 s
 Computed χ^R(iτ) for time point           26 / 30,      Execution time  620.6 s
 Computed χ^R(iτ) for time point           27 / 30,      Execution time  605.2 s
 Computed χ^R(iτ) for time point           28 / 30,      Execution time  575.0 s
 Computed χ^R(iτ) for time point           29 / 30,      Execution time  539.5 s
 Computed χ^R(iτ) for time point           30 / 30,      Execution time  504.2 s
 Computed V_PQ(k),                                       Execution time 1664.6 s
 
 Computed W_PQ(k,iω) for all k and τ,                    Execution time 3349.5 s
 
 Computed Σ^x,                                           Execution time 1070.8 s
 
 Computed Σ^c(iτ) for time point            1 / 30,      Execution time 1666.0 s
 Computed Σ^c(iτ) for time point            2 / 30,      Execution time 1420.6 s
 Computed Σ^c(iτ) for time point            3 / 30,      Execution time 1417.1 s
 Computed Σ^c(iτ) for time point            4 / 30,      Execution time 1409.4 s
 Computed Σ^c(iτ) for time point            5 / 30,      Execution time 1411.0 s
 Computed Σ^c(iτ) for time point            6 / 30,      Execution time 1427.2 s
 Computed Σ^c(iτ) for time point            7 / 30,      Execution time 1417.5 s
 Computed Σ^c(iτ) for time point            8 / 30,      Execution time 1415.7 s
 Computed Σ^c(iτ) for time point            9 / 30,      Execution time 1413.7 s
 Computed Σ^c(iτ) for time point           10 / 30,      Execution time 1409.3 s
 Computed Σ^c(iτ) for time point           11 / 30,      Execution time 1413.5 s
 Computed Σ^c(iτ) for time point           12 / 30,      Execution time 1412.2 s
 Computed Σ^c(iτ) for time point           13 / 30,      Execution time 1410.3 s
 Computed Σ^c(iτ) for time point           14 / 30,      Execution time 1410.8 s
 Computed Σ^c(iτ) for time point           15 / 30,      Execution time 1379.3 s
 Computed Σ^c(iτ) for time point           16 / 30,      Execution time 1372.9 s
 Computed Σ^c(iτ) for time point           17 / 30,      Execution time 1360.1 s
 Computed Σ^c(iτ) for time point           18 / 30,      Execution time 1349.3 s
 Computed Σ^c(iτ) for time point           19 / 30,      Execution time 1337.4 s
 Computed Σ^c(iτ) for time point           20 / 30,      Execution time 1313.2 s
 Computed Σ^c(iτ) for time point           21 / 30,      Execution time 1280.5 s
 Computed Σ^c(iτ) for time point           22 / 30,      Execution time 1244.7 s
 Computed Σ^c(iτ) for time point           23 / 30,      Execution time 1211.9 s
 Computed Σ^c(iτ) for time point           24 / 30,      Execution time 1163.2 s
 Computed Σ^c(iτ) for time point           25 / 30,      Execution time 1117.6 s
 Computed Σ^c(iτ) for time point           26 / 30,      Execution time 1069.9 s
 Computed Σ^c(iτ) for time point           27 / 30,      Execution time 1014.1 s
 Computed Σ^c(iτ) for time point           28 / 30,      Execution time  961.0 s
 Computed Σ^c(iτ) for time point           29 / 30,      Execution time  902.2 s
 Computed Σ^c(iτ) for time point           30 / 30,      Execution time  795.5 s

 
 SCF valence band maximum (eV):                                           -3.768
 SCF conduction band minimum (eV):                                         0.926
 SCF indirect band gap (eV):                                               4.695
 SCF direct band gap (eV):                                                 4.695
 
 G0W0 valence band maximum (eV):                                          -5.127
 G0W0 conduction band minimum (eV):                                        1.485
 G0W0 indirect band gap (eV):                                              6.612
 G0W0 direct band gap (eV):                                                7.459
 
 Hartree-Fock with SCF orbitals valence band maximum (eV):                -7.103
 Hartree-Fock with SCF orbitals conduction band minimum (eV)               3.471
 Hartree-Fock with SCF orbitals indirect band gap (eV):                   10.573
 Hartree-Fock with SCF orbitals direct band gap (eV):                     12.952

 ENERGY| Total FORCE_EVAL ( QS ) energy [hartree]            -12.878829466601664

 -------------------------------------------------------------------------------
 -                                                                             -
 -                                DBCSR STATISTICS                             -
 -                                                                             -
 -------------------------------------------------------------------------------
 COUNTER                                    TOTAL       BLAS       SMM       ACC
 flops inhomo. stacks                           0       0.0%      0.0%      0.0%
 flops total                         0.000000E+00       0.0%      0.0%      0.0%
 flops max/rank                      0.000000E+00       0.0%      0.0%      0.0%
 matmuls inhomo. stacks                         0       0.0%      0.0%      0.0%
 matmuls total                                  0       0.0%      0.0%      0.0%
 number of processed stacks                     0       0.0%      0.0%      0.0%
 average stack size                                     0.0       0.0       0.0
 marketing flops                     0.000000E+00
 -------------------------------------------------------------------------------
 -                                                                             -
 -                      DBCSR MESSAGE PASSING PERFORMANCE                      -
 -                                                                             -
 -------------------------------------------------------------------------------
 ROUTINE             CALLS      AVE VOLUME [Bytes]
 MP_Bcast                1                     12.
 MP_Allreduce           19                     21.
 MP_Alltoall      15698901                 106370.
 -------------------------------------------------------------------------------

 -------------------------------------------------------------------------------
 -                                                                             -
 -                                DBM STATISTICS                               -
 -                                                                             -
 -------------------------------------------------------------------------------
    M  x    N  x    K                                          COUNT     PERCENT
    ?  x    ?  x    ?                                    30807612609      49.85%
  ???  x   ??  x   ??                                    13289589904      21.50%
 >999  x   ??  x   ??                                     8536980759      13.81%
   ??  x   ??  x >999                                     2439837039       3.95%
   ??  x   ??  x  ???                                     6727654991      10.89%
 -------------------------------------------------------------------------------
 Memory consumption                Number of allocations  Used [MiB]  Size [MiB]
 Host                                         3234056208           0           0
 -------------------------------------------------------------------------------

 -------------------------------------------------------------------------------
 -                                                                             -
 -                                GRID STATISTICS                              -
 -                                                                             -
 -------------------------------------------------------------------------------
 LP    KERNEL             BACKEND                              COUNT     PERCENT
 6     integrate general  CPU                                 951880      50.45%
 6     collocate general  CPU                                 933920      49.49%
 0     collocate general  CPU                                    768       0.04%
 0     integrate general  CPU                                    384       0.02%
 -------------------------------------------------------------------------------

 MEMORY| Estimated peak process memory [MiB]                               68671

 -------------------------------------------------------------------------------
 ----                             MULTIGRID INFO                            ----
 -------------------------------------------------------------------------------
 count for grid        1:        4317620          cutoff [a.u.]          500.00
 count for grid        2:        2508575          cutoff [a.u.]          166.67
 count for grid        3:        1887094          cutoff [a.u.]           55.56
 count for grid        4:        1918322          cutoff [a.u.]           18.52
 total gridlevel count  :       10631611

 -------------------------------------------------------------------------------
 -                                                                             -
 -                         MESSAGE PASSING PERFORMANCE                         -
 -                                                                             -
 -------------------------------------------------------------------------------

 ROUTINE             CALLS      AVE VOLUME [Bytes]
 MP_Group        350272898
 MP_Bcast        223023797                     76.
 MP_Allreduce    601604940                    275.
 MP_Sync         526797038
 MP_Alltoall     253124040                    180.
 MP_SendRecv         59592                   3552.
 MP_ISendRecv        60738                   3552.
 MP_Wait         336398795
 MP_comm_split   218749693
 MP_ISend        664426866                  29078.
 MP_IRecv        557108570                  33732.
 -------------------------------------------------------------------------------


 -------------------------------------------------------------------------------
 -                                                                             -
 -                           R E F E R E N C E S                               -
 -                                                                             -
 -------------------------------------------------------------------------------
 
 CP2K version 2025.2, the CP2K developers group (2025).
 CP2K is freely available from https://www.cp2k.org/ .
 
 M. Graml, K. Zollner, D. Hernangómez-Pérez, P. E. Faria Junior, J. Wilhelm.
 J. Chem. Theory Comput. 20, 2202-2208 (2024).
 Low-scaling GW algorithm applied to twisted transition-metal dichalcogenide 
 heterobilayers.
 https://doi.org/10.1021/acs.jctc.3c01230

 T. D. Kuehne, M. Iannuzzi, M. Del Ben, V. V. Rybkin, P. Seewald, F. Stein, T. 
 Laino, R. Z. Khaliullin, O. Schuett, F. Schiffmann, D. Golze, J. Wilhelm, S. 
 Chulkov, M. H. Bani-Hashemian, V. Weber, U. Borstnik, M. Taillefumier, A. S. 
 Jakobovits, A. Lazzaro, H. Pabst, T. Mueller, R. Schade, M. Guidon, S. 
 Andermatt, N. Holmberg, G. K. Schenter, A. Hehn, A. Bussy, F. Belleflamme, G. 
 Tabacchi, A. Gloess, M. Lass, I. Bethune, C. J. Mundy, C. Plessl, M. Watkins, 
 J. VandeVondele, M. Krack, J. Hutter.
 J. Chem. Phys. 152, 194103 (2020).
 CP2K: An electronic structure and molecular dynamics software package - 
 Quickstep: Efficient and accurate electronic structure calculations.
 https://doi.org/10.1063/5.0007045

 A. Togo, I. Tanaka.
 arXiv, 1808.01590 (2018).
 Spglib : a software library for crystal symmetry search.

 O. Schuett, P. Messmer, J. Hutter, J. VandeVondele.
 Electronic Structure Calculations on Graphics Processing Units, 173-190 (2016).
 GPU-Accelerated Sparse Matrix-Matrix Multiplication for Linear Scaling Density 
 Functional Theory.
 https://doi.org/10.1002/9781118670712.ch8

 A. Heinecke, G. Henry, M. Hutchinson, H. Pabst.
 Proceedings of Intl. Supercomputing Conference, 981-991 (2016).
 LIBXSMM: Accelerating Small Matrix Multiplications by Runtime Code Generation.
 https://doi.org/10.1109/SC.2016.83

 J. Hutter, M. Iannuzzi, F. Schiffmann, J. VandeVondele.
 WIREs Comput Mol Sci. 4, 15-25 (2014).
 CP2K: atomistic simulations of condensed matter systems.
 https://doi.org/10.1002/wcms.1159

 U. Borstnik, J. VandeVondele, V. Weber, J. Hutter.
 Parallel Comput. 40, 47-58 (2014).
 Sparse matrix multiplication: The distributed block-compressed sparse row 
 library.
 https://doi.org/10.1016/j.parco.2014.03.012

 A. Marek, V. Blum, R. Johanni, V. Havu, B. Lang, T. Auckenthaler, A. Heinecke, 
 H. Bungartz, H. Lederer.
 J. Phys. Condens. Matter 26, 213201 (2014).
 The ELPA library: scalable parallel eigenvalue solutions for electronic 
 structure theory and computational science.
 https://doi.org/10.1088/0953-8984/26/21/213201

 J. VandeVondele, J. Hutter.
 J. Chem. Phys. 127, 114105 (2007).
 Gaussian basis sets for accurate calculations on molecular systems in gas and 
 condensed phases.
 https://doi.org/10.1063/1.2770708

 J. VandeVondele, M. Krack, F. Mohamed, M. Parrinello, T. Chassaing, J. Hutter.
 Comput. Phys. Commun. 167, 103-128 (2005).
 QUICKSTEP: Fast and accurate density functional calculations using a mixed 
 Gaussian and plane waves approach.
 https://doi.org/10.1016/j.cpc.2004.12.014

 M. Krack.
 Theor. Chem. Acc. 114, 145-152 (2005).
 Pseudopotentials for H to Kr optimized for gradient-corrected 
 exchange-correlation functionals.
 https://doi.org/10.1007/s00214-005-0655-y

 M. Frigo, S. G. Johnson.
 Proc. IEEE 93, 216-231 (2005).
 The design and implementation of FFTW3.
 https://doi.org/10.1109/JPROC.2004.840301

 C. Hartwigsen, S. Goedecker, J. Hutter.
 Phys. Rev. B 58, 3641-3662 (1998).
 Relativistic separable dual-space Gaussian pseudopotentials from H to Rn.
 https://doi.org/10.1103/PhysRevB.58.3641

 G. Lippert, J. Hutter, M. Parrinello.
 Mol. Phys. 92, 477-487 (1997).
 A hybrid Gaussian and plane wave density functional scheme.
 https://doi.org/10.1080/002689797170220

 S. Goedecker, M. Teter, J. Hutter.
 Phys. Rev. B 54, 1703-1710 (1996).
 Separable dual-space Gaussian pseudopotentials.
 https://doi.org/10.1103/PhysRevB.54.1703

 J. P. Perdew, K. Burke, M. Ernzerhof.
 Phys. Rev. Lett. 77, 3865-3868 (1996).
 Generalized gradient approximation made simple.
 https://doi.org/10.1103/PhysRevLett.77.3865


 -------------------------------------------------------------------------------
 -                                                                             -
 -                                T I M I N G                                  -
 -                                                                             -
 -------------------------------------------------------------------------------
 SUBROUTINE                       CALLS  ASD         SELF TIME        TOTAL TIME
                                MAXIMUM       AVERAGE  MAXIMUM  AVERAGE  MAXIMUM
 CP2K                                 1  1.0     0.14     0.48 70973.86 70977.50
 qs_energies                          1  2.0     0.04     0.50 70970.93 70974.91
 qs_energies_properties               1  3.0     0.00     0.00 69795.15 69798.73
 post_scf_bandstructure               1  4.0     0.03     0.40 69795.15 69798.73
 gw                                   1  5.0     0.00     0.01 69657.75 69661.31
 gw_calc_small_cell_full_kp           1  6.0     0.00     0.00 69411.47 69415.02
 dbt_total                      *******  9.6   152.38   161.36 54301.75 58051.63
 dbt_contract                   ******* 10.4   307.48   324.13 48448.88 51949.15
 dbt_tas_multiply               ******* 13.0    43.12    48.66 45463.34 48941.93
 dbt_tas_total                  ******* 14.0  2616.40  2823.31 45178.99 48415.79
 compute_Sigma_c                      1  7.0     0.00     0.01 38928.46 38930.45
 contract_to_Sigma                  688  8.0   372.47   398.60 22385.10 24723.95
 compute_chi                          1  7.0     0.32     0.36 23050.73 23051.92
 dbt_tas_estimate_result_nze    ******* 13.5  2173.05  2540.92 18771.99 20121.49
 dbt_tas_dbm                    ******* 15.0    41.91    48.06 16984.53 19311.08
 dbm_multiply                   ******* 17.0 14950.26 19006.71 14950.26 19006.71
 contract_to_Sigma_3c_x_G       *******  9.0    13.92    16.04 13520.52 14840.41
 contract_W                         353  8.0    51.75    58.55 13207.60 14513.60
 mp_sync                        ******* -2.9  8953.05 14317.40  8953.05 14317.40
 G_times_3c                      117232  8.0    60.56    68.79 11711.27 12273.88
 contract_to_Sigma_contract      115298  9.0    59.28    76.96  8418.37  9440.86
 contract_M_occ_vir_to_chi          360  8.0   684.86   751.78  8959.71  9387.13
 dbt_tas_mm_3T                  ******* 16.1    16.64    19.61  5773.83  7799.65
 reshape_mm_small               ******* 15.0  2835.32  2966.53  7337.99  7603.74
 dbt_tas_mm_2                   ******* 16.1    15.56    18.00  6581.33  7420.88
 dbt_copy                       ******* 10.9   230.30   261.39  5865.92  7353.69
 dbt_reshape                    ******* 11.9  3356.54  4511.35  4469.14  5837.52
 compute_W_real_space                 1  7.0     1.90     2.08  5014.04  5014.30
 dbt_tas_create_split           ******* -2.9    79.33    88.85  4122.59  4515.87
 dbt_tas_create_split_rows_or_c ******* -1.9   307.56   341.82  4043.26  4434.07
 dbt_tas_mm_1N                  ******* 15.5     8.33     9.80  3282.11  4117.81
 dbt_tas_reshape                ******* 15.5   493.86   531.00  3591.73  3872.33
 get_t_3c_int                   *******  9.3   202.36   219.33  3259.72  3677.90
 reshape_mm_compatible          ******* 15.0   363.63   390.94  3156.36  3431.36
 dbt_tas_distribution_new       ******* -7.8  1385.88  1603.41  3020.51  3388.45
 mp_sum_dm3                        1098  8.9  3078.55  3079.12  3078.55  3079.12
 fm_to_local_array                  934  8.1    10.41    10.75  3048.53  3048.81
 dbt_tas_replicate              ******* 15.0  1160.45  1248.96  2624.99  2736.56
 change_split                   ******* 15.5   120.85   143.62  2251.83  2491.00
 convert_to_new_pgrid           ******* -3.5   913.58   987.94  2180.45  2477.07
 dbt_remap                      6552563 11.0   366.50   401.18  1878.20  2420.97
 parallel_gemm_cfm               592640  9.0     0.22     0.31  2259.29  2275.26
 parallel_gemm_cfm_cosma         592640 10.0  2259.07  2275.04  2259.07  2275.04
 mp_cart_create                 *******  5.0  1674.89  1890.93  1793.59  2013.27
 G_occ_vir                          121  8.0     0.49     0.58  1792.24  1797.37
 compute_Minv_and_Vsqrt               1  8.0     0.02     0.03  1664.49  1664.65
 mp_comm_dup                    ******* -4.2  1378.04  1605.38  1436.38  1659.51
 build_2c_coulomb_matrix_kp_sma       2  9.0     3.22    19.11  1654.29  1654.39
 dbm_reserve_blocks             *******  3.2  1373.51  1599.75  1373.51  1599.75
 dbm_copy                       ******* ****  1266.87  1528.71  1266.87  1528.71
 mp_comm_split_direct           ******* -0.9  1213.05  1445.43  1248.62  1481.86
 dbt_tas_reserve_blocks_index   ******* -2.0   121.38   143.23  1210.35  1430.57
 mp_waitall_2                   *******  5.4  1194.84  1409.49  1194.84  1409.49
 compute_QP_energies                  1  7.0     0.13     0.17  1345.49  1345.59
 trafo_to_k_and_nn               149572  8.0     0.40     0.53  1344.37  1344.47
 dbt_tas_create_new             *******  0.6  1225.14  1315.74  1225.14  1315.74
 dbt_tas_communicate_buffer     ******* -8.3   304.98   327.16  1139.86  1293.18
 build_2c_coulomb_matrix_kp_sma 1474560 10.0  1084.80  1231.99  1084.80  1231.99
 scf_env_do_scf                       1  3.0     0.00     0.00  1175.21  1175.27
 scf_env_do_scf_inner_loop          103  4.0     0.02     0.03  1175.21  1175.27
 qs_scf_new_mos_kp                  103  5.0     0.00     0.00  1157.91  1158.42
 do_general_diag_kp                 103  6.0     0.74     0.80  1157.91  1158.42
 mp_alltoall_i22                2602437  9.8  1011.37  1143.89  1011.37  1143.89
 dbt_tas_reshape_buffer_obtain  ******* 16.5   582.79   737.31   957.20  1135.24
 dbt_tas_reshape_buffer_fill    ******* 16.5   940.16  1082.61   940.16  1082.61
 compute_Sigma_x                      1  7.0     0.00     0.00  1072.75  1072.86
 dbcsr_complete_redistribute    1343358  9.4    18.01    77.74   877.63   962.50
 dbt_tas_merge                  ******* 15.1   529.41   626.68   797.57   911.78
 dbt_tas_reshape_communicate_bu ******* 16.5    45.12    51.00   739.41   889.01
 dbt_tas_copy                   ******* 12.3   473.25   580.56   694.35   867.73
 dbm_add                        ******* 15.0   764.29   854.67   764.29   854.67
 dbt_tas_reserve_blocks_templat ******* 14.2   305.07   354.35   746.55   840.63
 dbt_communicate_buffer         ******* 12.9    50.87    60.28   638.14   819.43
 copy_dbcsr_to_fm                769743  7.8     2.61     2.83   739.26   759.61
 dbt_tas_mp_comm                ******* 13.1    50.17    56.66   571.70   755.62
 mp_sum_l                       ******* -3.8   525.20   743.31   525.20   743.31
 dbcsr_desymmetrize_deep        1259079  8.1     8.09     9.95   626.23   658.78
 fm_to_local_tensor              335768  9.0     3.74     4.57   649.79   649.85
 mp_alltoall_i                  ******* -0.8   367.91   637.43   367.91   637.43
 dbt_reserve_blocks_index_array ******* 12.9    24.79    35.86   464.29   614.31
 dbt_reserve_blocks_index       ******* 13.8    33.60    44.78   444.51   596.35
 mp_comm_free                   ******* -0.7   523.64   587.85   523.64   587.85
 dbm_filter                     ******* 14.9   539.40   573.36   539.40   573.36
 dbt_permute_index              ******* 12.3   455.87   501.02   510.73   565.68
 copy_fm_to_dbcsr                573615  9.2     1.04     1.13   432.96   533.08
 dbt_align_index                ******* 11.5    81.07    87.29   455.12   504.08
 dbt_tas_replicate_communicate_ ******* 15.9    28.29    33.34   376.00   416.65
 add_R                          ******* -0.4   225.41   271.60   349.41   410.92
 dbt_copy_nocomm                4593380 11.0   196.32   258.10   300.73   405.60
 reshape_mm_template            ******* 15.5   253.08   261.11   383.17   400.39
 dbt_distribution_new_expert    ******* 12.4    47.16    64.07   309.75   394.45
 global_matrix_to_local_matrix   335768 10.0     2.41     6.39   353.82   393.01
 local_dbt_to_global_fm              91  8.0     0.26     0.29   349.95   349.96
 dbt_tas_reshape_get_coord      ******* 16.5   290.00   316.65   290.00   316.65
 mp_sum_dm                      1474662 10.0   266.14   312.64   266.14   312.64
 dbm_scale                      ******* 15.0   286.28   309.57   286.28   309.57
 dbt_tas_reshape_alltoall       ******* 16.5    36.49    43.08   156.35   273.88
 mp_cart_sub                    1539565  9.8   270.80   270.95   270.80   270.95
 kpoint_density_transform           103  7.0     0.30     0.34   258.42   258.52
 mp_cart_get                    ******* -0.8   217.34   256.47   217.34   256.47
 create_and_init_bs_env_for_gw        1  6.0     0.00     0.02   246.27   246.29
 is_cell_in_index_to_cell       ******* -0.7   214.38   240.75   214.38   240.75
 mp_sum_i                       ******* 16.0   228.09   237.54   228.09   237.54
 mp_isend_dv                    *******  2.5   127.73   231.77   127.73   231.77
 dbt_tas_replicate_alltoall     ******* 15.9    23.79    27.56   111.09   231.49
 dbt_destroy                    ******* 11.3   168.42   193.27   193.74   223.91
 mp_comm_size                   *******  0.4   177.52   207.22   177.52   207.22
 dbt_create_new                 6888336 11.9    27.48    33.12   170.51   206.62
 get_V_tr_R                          34  9.0     0.14     0.15   204.47   204.55
 mult_W_with_Minv                    30  8.0     0.12     0.14   204.41   204.42
 fm_add_ikp_to_rs                278784  9.0   120.02   135.33   174.01   202.52
 send_sizes_1                    335768 11.0     0.11     0.13   189.91   192.66
 compute_3c_integrals                 1  7.0     0.11     0.12   185.36   185.37
 local_dbt_to_global_mat         201019  9.0     1.07     1.14   153.07   184.51
 build_3c_integrals                   1  8.0   139.72   178.06   145.11   184.12
 send_data                       335768 11.0     0.12     0.15   133.75   173.44
 communicate_buffer              335768 12.0     0.97    29.55   133.62   173.32
 mp_waitall_1                   4268237 10.6   132.70   173.24   132.70   173.24
 rskp_transform                  244668  7.0     1.58   161.58     1.58   161.58
 dbt_reserve_blocks_template    4593380 12.0    14.50    16.61   104.41   159.07
 dbt_tas_merge_communicate_buff ******* 16.1    10.82    15.57   108.67   157.78
 mp_comm_rank                   *******  0.4   136.94   155.24   136.94   155.24
 dbt_pgrid_create_expert        ******* 13.4    10.11    12.53   104.18   153.97
 cp_fm_start_copy_general        711936  7.3     2.17     3.78   150.86   153.94
 add_V_L                         737280 10.0     2.54   149.24     2.54   149.24
 mp_sum_dv                       164386  8.9   140.41   145.31   140.41   145.31
 add_ikp_to_rs                  ******* -3.3   127.33   143.04   127.33   143.04
 mp_allgather_i                 1423872  8.3   128.90   134.22   128.90   134.22
 fm_MWM_R_t_to_local_tensor_W_R      30  8.0     0.03     0.04   132.08   132.10
 dbt_tas_merge_alltoall         ******* 16.1    15.52    36.71    66.25   130.38
 add_rs_to_ikp                  ******* -1.8   117.43   129.13   117.43   129.13
 fm_trafo_rs_to_ikp              149572  9.0    74.55    96.04   110.67   128.84
 dbt_nd_mp_comm                 6888331 11.9     6.85     8.25    63.07   107.42
 dbcsr_finalize                 4813104 10.8    17.72    18.67    88.47    98.93
 create_and_init_bs_env               1  5.0     0.00     0.00    96.61    96.63
 compute_cfm_mo_coeff_kp_and_ei       1  6.0     0.00     0.01    96.59    96.59
 trafo_rs_to_ikp                  16104  8.1     7.80     8.58    89.12    94.21
 mp_bcast_i                     ******* -0.9    61.50    87.54    61.50    87.54
 add_ikp_to_all_rs                14772  8.0     7.22     7.57    80.59    84.20
 local_matrix_to_global_matrix   201019 10.0     0.26     0.28    50.11    81.89
 dbt_create_3c_R1_R2                 62  8.0     6.89     7.41    74.06    81.00
 transform_dmat                  118656  8.0     0.78    79.12     0.78    79.12
 dbt_create_template            *******  9.0    70.57    77.50    70.57    77.50
 dbt_create_matrix               335768 10.0     1.00     1.11    24.08    73.47
 cp_cfm_geeig_canon                2452  7.0     0.01     0.01    68.54    68.62
 mp_alltoall_d11v               7807521 10.3    19.72    66.57    19.72    66.57
 cp_cfm_heevd                      5522  8.0     0.00     0.00    66.32    66.55
 cp_cfm_heevd_base                 5522  9.0    66.31    66.55    66.31    66.55
 mp_max_i                       ******* 11.4    57.62    64.35    57.62    64.35
 dbcsr_merge_all                1861036 11.6    35.36    46.03    49.71    60.38
 mp_isend_lm2                   *******  0.9    39.89    55.85    39.89    55.85
 mp_alltoall_i11v               5289153 10.1    33.93    46.57    33.93    46.57
 dbcsr_filter_anytype           1542228 10.9     5.79     6.27    40.78    46.54
 mp_irecv_lm2                   *******  0.9    37.23    43.84    37.23    43.84
 comm_data                       201019 11.0     0.29     4.28    26.03    41.80
 dos_pdos_ldos                        1  5.0     0.00     0.00    40.76    40.79
 dbt_buffer_get_index           *******  4.0    28.57    40.60    28.57    40.60
 compute_proj_mo_on_kind           2452  6.0     0.02     0.03    39.59    39.63
 mp_irecv_dv                    *******  2.5    34.20    39.26    34.20    39.26
 destroy_t_2d                        62  8.0     8.44     9.08    35.61    38.02
 rsmat_to_kp                       7356  7.3     0.04     0.04    37.27    37.42
 get_data                        335768 11.0     5.65    35.71     5.92    36.10
 mp_dims_create                 ******* -4.6    29.47    32.53    29.47    32.53
 dbt_distribution_destroy       ******* 12.4    15.30    21.89    20.61    28.50
 trafo_V_xc_R_to_kp                   1  7.0     0.01     0.01    28.30    28.32
 power                            30612  8.0     1.66     2.12    27.04    27.96
 set_blocks                      201019 11.0     2.01    10.27    12.46    26.81
 diag_complex                     30612  9.0    25.38    26.22    25.38    26.22
 mp_cart_rank                   ******* -3.3    10.91    24.98    10.91    24.98
 get_Minv_Vtr_Minv_R                  1  8.0     0.01     0.03    23.90    23.99
 dbcsr_work_destroy_all         3120115 11.0    11.30    12.28    15.70    17.27
 dbcsr_work_create              3120115 10.1     9.62    12.62    13.48    17.10
 mp_bcast_iv                    2848086  8.3    15.10    16.24    15.10    16.24
 mp_isend_im2                   ******* 14.2     7.86    16.13     7.86    16.13
 dbcsr_iterator_start           ******* 10.6    14.24    15.00    15.24    15.99
 dbcsr_create_new               4426039  9.6    12.21    13.92    13.98    15.66
 copy_fm_to_dbcsr_bc             573615 10.2     4.53     4.79    13.11    13.94
 send_sizes_2                    335768 11.0     0.11     0.13    12.33    13.84
 setup_parallelization_Delta_R        1  7.0     0.00     0.00    13.24    13.29
 compute_n_tensor_ops_Delta_R         1  8.0     3.80     5.41    13.21    13.26
 tree_to_linear_d               1352589 12.4    11.06    11.98    11.06    11.98
 dbcsr_data_release             ******* 11.9     7.39    11.31     7.39    11.31
 dbcsr_iterator_stop            ******* 10.6     8.63     9.41     9.55    10.66
 mp_irecv_im2                   ******* 14.2     7.17    10.24     7.17    10.24
 copy_dbcsr_to_fm_bc             769743  8.8     4.92     5.26     9.64     9.98
 heuristic_RI_regularization          1  7.0     0.00     0.00     9.51     9.52
 dbt_copy_matrix_to_tensor       335768 10.0     3.66     3.94     8.56     9.06
 setup_cells_3c                       1  7.0     0.07     0.11     8.09     8.10
 reserve_blocks                  335768 11.0     0.50     0.57     7.41     8.00
 build_3c_integral_block           5955  8.0     1.64     3.24     4.02     7.92
 qs_ks_update_qs_env                103  5.0     0.00     0.00     5.46     7.47
 comm_size                       201019 11.0     0.11     0.12     6.89     7.39
 dbcsr_data_new                 ******* 11.3     5.88     7.21     5.88     7.21
 mp_max_l                       ******* 13.6     6.03     7.15     6.03     7.15
 -------------------------------------------------------------------------------

 The number of warnings for this run is : 1
 
 -------------------------------------------------------------------------------
  **** **** ******  **  PROGRAM ENDED AT                 2025-10-15 06:26:44.934
 ***** ** ***  *** **   PROGRAM RAN ON                                   lcn1302
 **    ****   ******    PROGRAM RAN BY                                  metdyn02
 ***** **    ** ** **   PROGRAM PROCESS ID                               2820850
  **** **  *******  **  PROGRAM STOPPED IN /scratch/hpc-prf-metdyn/metdyn02_Remi
                                           /03_hBN/aug-DZVP-MOLOPT
