SIRIUS 7.7.0, git hash: https://api.github.com/repos/electronic-structure/SIRIUS/git/ref/tags/v7.7.0
 DBCSR| CPU Multiplication driver                                           BLAS (U)
 DBCSR| Multrec recursion limit                                              512 (U)
 DBCSR| Multiplication stack size                                           1000 (D)
 DBCSR| Maximum elements for images                                    UNLIMITED (U)
 DBCSR| Multiplicative factor virtual images                                   1 (U)
 DBCSR| Use multiplication densification                                       T (D)
 DBCSR| Multiplication size stacks                                             3 (U)
 DBCSR| Use memory pool for CPU allocation                                     F (U)
 DBCSR| Number of 3D layers                                               SINGLE (U)
 DBCSR| Use MPI memory allocation                                              F (U)
 DBCSR| Use RMA algorithm                                                      F (U)
 DBCSR| Use Communication thread                                               T (U)
 DBCSR| Communication thread load                                             68 (D)
 DBCSR| MPI: My process id                                                     0
 DBCSR| MPI: Number of processes                                             256
 DBCSR| OMP: Current number of threads                                         6
 DBCSR| OMP: Max number of threads                                             6
 DBCSR| Split modifier for TAS multiplication algorithm                  1.0E+00 (U)


  **** **** ******  **  PROGRAM STARTED AT               2025-10-15 14:51:51.187
 ***** ** ***  *** **   PROGRAM STARTED ON                               lcn1510
 **    ****   ******    PROGRAM STARTED BY                              metdyn02
 ***** **    ** ** **   PROGRAM PROCESS ID                               2618564
  **** **  *******  **  PROGRAM STARTED IN /scratch/hpc-prf-metdyn/metdyn02_Remi
                                           /03_hBN/TZVP-MOLOPT

 CP2K| version string:                                       CP2K version 2025.2
 CP2K| source code revision number:                                  git:3158929
 CP2K| cp2kflags: omp libint fftw3 libxc libgrpp elpa parallel scalapack mpi_f08
 CP2K|             cosma xsmm plumed2 spglib sirius libvori libbqb libvdwxc hdf5
 CP2K| is freely available from                            https://www.cp2k.org/
 CP2K| Program compiled at                      Tue Sep 30 10:40:48 AM CEST 2025
 CP2K| Program compiled on                                                login1
 CP2K| Program compiled for                                                local
 CP2K| Data directory path    /opt/software/pc2/EB-SW/software/CP2K/2025.2-foss-
 CP2K| Input file name                                                    GW.inp

 GLOBAL| Force Environment number                                              1
 GLOBAL| Basis set file name                                        BASIS_MOLOPT
 GLOBAL| Potential file name                                  GTH_SOC_POTENTIALS
 GLOBAL| MM Potential file name                                     MM_POTENTIAL
 GLOBAL| Coordinate file name                                      __STD_INPUT__
 GLOBAL| Method name                                                        CP2K
 GLOBAL| Project name                                                        hBN
 GLOBAL| Run type                                                         ENERGY
 GLOBAL| FFT library                                                       FFTW3
 GLOBAL| Diagonalization library                                            ELPA
 GLOBAL| Cholesky decomposition library                                ScaLAPACK
 GLOBAL| DGEMM library                                                      BLAS
 GLOBAL| Minimum number of eigenvectors for ELPA usage                        16
 GLOBAL| Orthonormality check for eigenvectors                          DISABLED
 GLOBAL| Matrix multiplication library                                     COSMA
 GLOBAL| All-to-all communication in single precision                          F
 GLOBAL| FFTs using library dependent lengths                                  F
 GLOBAL| Grid backend                                                       AUTO
 GLOBAL| Global print level                                               MEDIUM
 GLOBAL| MPI I/O enabled                                                       T
 GLOBAL| Total number of message passing processes                           256
 GLOBAL| Number of threads for this process                                    6
 GLOBAL| This output is from process                                           0
 GLOBAL| OpenMP stack size per thread (OMP_STACKSIZE)                    default
 GLOBAL| CPU model name                          AMD EPYC 9655 96-Core Processor
 GLOBAL| CPUID                                                              1003

 MEMORY| system memory details [Kb]
 MEMORY|                        rank 0           min           max       average
 MEMORY| MemTotal           1583759304    1583759172    1583788268    1583762873
 MEMORY| MemFree            1547880112    1547798552    1548051772    1547901021
 MEMORY| Buffers                 12260         12244         12260         12253
 MEMORY| Cached                7432128       7395028       7432128       7411195
 MEMORY| Slab                  1660500       1621432       1681708       1664472
 MEMORY| SReclaimable           605472        546752        605772        595384
 MEMORY| MemLikelyFree      1555929972    1555815908    1556061724    1555919855


 *** Fundamental physical constants (SI units) ***

 *** Literature: B. J. Mohr and B. N. Taylor,
 ***             CODATA recommended values of the fundamental physical
 ***             constants: 2006, Web Version 5.1
 ***             http://physics.nist.gov/constants

 Speed of light in vacuum [m/s]                             2.99792458000000E+08
 Magnetic constant or permeability of vacuum [N/A**2]       1.25663706143592E-06
 Electric constant or permittivity of vacuum [F/m]          8.85418781762039E-12
 Planck constant (h) [J*s]                                  6.62606896000000E-34
 Planck constant (h-bar) [J*s]                              1.05457162825177E-34
 Elementary charge [C]                                      1.60217648700000E-19
 Electron mass [kg]                                         9.10938215000000E-31
 Electron g factor [ ]                                     -2.00231930436220E+00
 Proton mass [kg]                                           1.67262163700000E-27
 Fine-structure constant                                    7.29735253760000E-03
 Rydberg constant [1/m]                                     1.09737315685270E+07
 Avogadro constant [1/mol]                                  6.02214179000000E+23
 Boltzmann constant [J/K]                                   1.38065040000000E-23
 Atomic mass unit [kg]                                      1.66053878200000E-27
 Bohr radius [m]                                            5.29177208590000E-11

 *** Conversion factors ***

 [u] -> [a.u.]                                              1.82288848426455E+03
 [Angstrom] -> [Bohr] = [a.u.]                              1.88972613288564E+00
 [a.u.] = [Bohr] -> [Angstrom]                              5.29177208590000E-01
 [a.u.] -> [s]                                              2.41888432650478E-17
 [a.u.] -> [fs]                                             2.41888432650478E-02
 [a.u.] -> [J]                                              4.35974393937059E-18
 [a.u.] -> [N]                                              8.23872205491840E-08
 [a.u.] -> [K]                                              3.15774647902944E+05
 [a.u.] -> [kJ/mol]                                         2.62549961709828E+03
 [a.u.] -> [kcal/mol]                                       6.27509468713739E+02
 [a.u.] -> [Pa]                                             2.94210107994716E+13
 [a.u.] -> [bar]                                            2.94210107994716E+08
 [a.u.] -> [atm]                                            2.90362800883016E+08
 [a.u.] -> [eV]                                             2.72113838565563E+01
 [a.u.] -> [Hz]                                             6.57968392072181E+15
 [a.u.] -> [1/cm] (wave numbers)                            2.19474631370540E+05
 [a.u./Bohr**2] -> [1/cm]                                   5.14048714338585E+03
 

 CELL_TOP| Volume [angstrom^3]:                                        81.840700
 CELL_TOP| Vector a [angstrom     2.510     0.000     0.000   |a| =     2.510000
 CELL_TOP| Vector b [angstrom    -1.255     2.174     0.000   |b| =     2.510000
 CELL_TOP| Vector c [angstrom     0.000     0.000    15.000   |c| =    15.000000
 CELL_TOP| Angle (b,c), alpha [degree]:                                90.000000
 CELL_TOP| Angle (a,c), beta  [degree]:                                90.000000
 CELL_TOP| Angle (a,b), gamma [degree]:                               120.000000
 CELL_TOP| Numerically orthorhombic:                                          NO
 CELL_TOP| Periodicity                                                        XY

 GENERATE|  Preliminary Number of Bonds generated:                             0
 GENERATE|  Achieved consistency in connectivity generation.

 CELL| Volume [angstrom^3]:                                            81.840700
 CELL| Vector a [angstrom]:       2.510     0.000     0.000   |a| =     2.510000
 CELL| Vector b [angstrom]:      -1.255     2.174     0.000   |b| =     2.510000
 CELL| Vector c [angstrom]:       0.000     0.000    15.000   |c| =    15.000000
 CELL| Angle (b,c), alpha [degree]:                                    90.000000
 CELL| Angle (a,c), beta  [degree]:                                    90.000000
 CELL| Angle (a,b), gamma [degree]:                                   120.000000
 CELL| Numerically orthorhombic:                                              NO
 CELL| Periodicity                                                            XY

 CELL_REF| Volume [angstrom^3]:                                        81.840700
 CELL_REF| Vector a [angstrom     2.510     0.000     0.000   |a| =     2.510000
 CELL_REF| Vector b [angstrom    -1.255     2.174     0.000   |b| =     2.510000
 CELL_REF| Vector c [angstrom     0.000     0.000    15.000   |c| =    15.000000
 CELL_REF| Angle (b,c), alpha [degree]:                                90.000000
 CELL_REF| Angle (a,c), beta  [degree]:                                90.000000
 CELL_REF| Angle (a,b), gamma [degree]:                               120.000000
 CELL_REF| Numerically orthorhombic:                                          NO
 CELL_REF| Periodicity                                                        XY

 *******************************************************************************
                                    Kpoints
 *******************************************************************************
 BRILLOUIN| K-point scheme                                        Monkhorst-Pack
 BRILLOUIN| K-Point grid                                            48   48    1
 BRILLOUIN| Accuracy in Symmetry determination                      0.100000E-05
 BRILLOUIN| K-Point point group symmetrization                               OFF
 BRILLOUIN| Wavefunction type                                            COMPLEX
 BRILLOUIN| List of Kpoints [2 Pi/Bohr]                                     1152
 BRILLOUIN| Number           Weight            X              Y              Z
 BRILLOUIN|     1           0.00087       -0.48958       -0.48958        0.00000
 BRILLOUIN|     2           0.00087       -0.48958       -0.46875        0.00000
 BRILLOUIN|     3           0.00087       -0.48958       -0.44792        0.00000
 BRILLOUIN|     4           0.00087       -0.48958       -0.42708        0.00000
 BRILLOUIN|     5           0.00087       -0.48958       -0.40625        0.00000
 BRILLOUIN|     6           0.00087       -0.48958       -0.38542        0.00000
 BRILLOUIN|     7           0.00087       -0.48958       -0.36458        0.00000
 BRILLOUIN|     8           0.00087       -0.48958       -0.34375        0.00000
 BRILLOUIN|     9           0.00087       -0.48958       -0.32292        0.00000
 BRILLOUIN|    10           0.00087       -0.48958       -0.30208        0.00000
 BRILLOUIN|    11           0.00087       -0.48958       -0.28125        0.00000
 BRILLOUIN|    12           0.00087       -0.48958       -0.26042        0.00000
 BRILLOUIN|    13           0.00087       -0.48958       -0.23958        0.00000
 BRILLOUIN|    14           0.00087       -0.48958       -0.21875        0.00000
 BRILLOUIN|    15           0.00087       -0.48958       -0.19792        0.00000
 BRILLOUIN|    16           0.00087       -0.48958       -0.17708        0.00000
 BRILLOUIN|    17           0.00087       -0.48958       -0.15625        0.00000
 BRILLOUIN|    18           0.00087       -0.48958       -0.13542        0.00000
 BRILLOUIN|    19           0.00087       -0.48958       -0.11458        0.00000
 BRILLOUIN|    20           0.00087       -0.48958       -0.09375        0.00000
 BRILLOUIN|    21           0.00087       -0.48958       -0.07292        0.00000
 BRILLOUIN|    22           0.00087       -0.48958       -0.05208        0.00000
 BRILLOUIN|    23           0.00087       -0.48958       -0.03125        0.00000
 BRILLOUIN|    24           0.00087       -0.48958       -0.01042        0.00000
 BRILLOUIN|    25           0.00087       -0.48958        0.01042        0.00000
 BRILLOUIN|    26           0.00087       -0.48958        0.03125        0.00000
 BRILLOUIN|    27           0.00087       -0.48958        0.05208        0.00000
 BRILLOUIN|    28           0.00087       -0.48958        0.07292        0.00000
 BRILLOUIN|    29           0.00087       -0.48958        0.09375        0.00000
 BRILLOUIN|    30           0.00087       -0.48958        0.11458        0.00000
 BRILLOUIN|    31           0.00087       -0.48958        0.13542        0.00000
 BRILLOUIN|    32           0.00087       -0.48958        0.15625        0.00000
 BRILLOUIN|    33           0.00087       -0.48958        0.17708        0.00000
 BRILLOUIN|    34           0.00087       -0.48958        0.19792        0.00000
 BRILLOUIN|    35           0.00087       -0.48958        0.21875        0.00000
 BRILLOUIN|    36           0.00087       -0.48958        0.23958        0.00000
 BRILLOUIN|    37           0.00087       -0.48958        0.26042        0.00000
 BRILLOUIN|    38           0.00087       -0.48958        0.28125        0.00000
 BRILLOUIN|    39           0.00087       -0.48958        0.30208        0.00000
 BRILLOUIN|    40           0.00087       -0.48958        0.32292        0.00000
 BRILLOUIN|    41           0.00087       -0.48958        0.34375        0.00000
 BRILLOUIN|    42           0.00087       -0.48958        0.36458        0.00000
 BRILLOUIN|    43           0.00087       -0.48958        0.38542        0.00000
 BRILLOUIN|    44           0.00087       -0.48958        0.40625        0.00000
 BRILLOUIN|    45           0.00087       -0.48958        0.42708        0.00000
 BRILLOUIN|    46           0.00087       -0.48958        0.44792        0.00000
 BRILLOUIN|    47           0.00087       -0.48958        0.46875        0.00000
 BRILLOUIN|    48           0.00087       -0.48958        0.48958        0.00000
 BRILLOUIN|    49           0.00087       -0.46875       -0.48958        0.00000
 BRILLOUIN|    50           0.00087       -0.46875       -0.46875        0.00000
 BRILLOUIN|    51           0.00087       -0.46875       -0.44792        0.00000
 BRILLOUIN|    52           0.00087       -0.46875       -0.42708        0.00000
 BRILLOUIN|    53           0.00087       -0.46875       -0.40625        0.00000
 BRILLOUIN|    54           0.00087       -0.46875       -0.38542        0.00000
 BRILLOUIN|    55           0.00087       -0.46875       -0.36458        0.00000
 BRILLOUIN|    56           0.00087       -0.46875       -0.34375        0.00000
 BRILLOUIN|    57           0.00087       -0.46875       -0.32292        0.00000
 BRILLOUIN|    58           0.00087       -0.46875       -0.30208        0.00000
 BRILLOUIN|    59           0.00087       -0.46875       -0.28125        0.00000
 BRILLOUIN|    60           0.00087       -0.46875       -0.26042        0.00000
 BRILLOUIN|    61           0.00087       -0.46875       -0.23958        0.00000
 BRILLOUIN|    62           0.00087       -0.46875       -0.21875        0.00000
 BRILLOUIN|    63           0.00087       -0.46875       -0.19792        0.00000
 BRILLOUIN|    64           0.00087       -0.46875       -0.17708        0.00000
 BRILLOUIN|    65           0.00087       -0.46875       -0.15625        0.00000
 BRILLOUIN|    66           0.00087       -0.46875       -0.13542        0.00000
 BRILLOUIN|    67           0.00087       -0.46875       -0.11458        0.00000
 BRILLOUIN|    68           0.00087       -0.46875       -0.09375        0.00000
 BRILLOUIN|    69           0.00087       -0.46875       -0.07292        0.00000
 BRILLOUIN|    70           0.00087       -0.46875       -0.05208        0.00000
 BRILLOUIN|    71           0.00087       -0.46875       -0.03125        0.00000
 BRILLOUIN|    72           0.00087       -0.46875       -0.01042        0.00000
 BRILLOUIN|    73           0.00087       -0.46875        0.01042        0.00000
 BRILLOUIN|    74           0.00087       -0.46875        0.03125        0.00000
 BRILLOUIN|    75           0.00087       -0.46875        0.05208        0.00000
 BRILLOUIN|    76           0.00087       -0.46875        0.07292        0.00000
 BRILLOUIN|    77           0.00087       -0.46875        0.09375        0.00000
 BRILLOUIN|    78           0.00087       -0.46875        0.11458        0.00000
 BRILLOUIN|    79           0.00087       -0.46875        0.13542        0.00000
 BRILLOUIN|    80           0.00087       -0.46875        0.15625        0.00000
 BRILLOUIN|    81           0.00087       -0.46875        0.17708        0.00000
 BRILLOUIN|    82           0.00087       -0.46875        0.19792        0.00000
 BRILLOUIN|    83           0.00087       -0.46875        0.21875        0.00000
 BRILLOUIN|    84           0.00087       -0.46875        0.23958        0.00000
 BRILLOUIN|    85           0.00087       -0.46875        0.26042        0.00000
 BRILLOUIN|    86           0.00087       -0.46875        0.28125        0.00000
 BRILLOUIN|    87           0.00087       -0.46875        0.30208        0.00000
 BRILLOUIN|    88           0.00087       -0.46875        0.32292        0.00000
 BRILLOUIN|    89           0.00087       -0.46875        0.34375        0.00000
 BRILLOUIN|    90           0.00087       -0.46875        0.36458        0.00000
 BRILLOUIN|    91           0.00087       -0.46875        0.38542        0.00000
 BRILLOUIN|    92           0.00087       -0.46875        0.40625        0.00000
 BRILLOUIN|    93           0.00087       -0.46875        0.42708        0.00000
 BRILLOUIN|    94           0.00087       -0.46875        0.44792        0.00000
 BRILLOUIN|    95           0.00087       -0.46875        0.46875        0.00000
 BRILLOUIN|    96           0.00087       -0.46875        0.48958        0.00000
 BRILLOUIN|    97           0.00087       -0.44792       -0.48958        0.00000
 BRILLOUIN|    98           0.00087       -0.44792       -0.46875        0.00000
 BRILLOUIN|    99           0.00087       -0.44792       -0.44792        0.00000
 BRILLOUIN|   100           0.00087       -0.44792       -0.42708        0.00000
 BRILLOUIN|   101           0.00087       -0.44792       -0.40625        0.00000
 BRILLOUIN|   102           0.00087       -0.44792       -0.38542        0.00000
 BRILLOUIN|   103           0.00087       -0.44792       -0.36458        0.00000
 BRILLOUIN|   104           0.00087       -0.44792       -0.34375        0.00000
 BRILLOUIN|   105           0.00087       -0.44792       -0.32292        0.00000
 BRILLOUIN|   106           0.00087       -0.44792       -0.30208        0.00000
 BRILLOUIN|   107           0.00087       -0.44792       -0.28125        0.00000
 BRILLOUIN|   108           0.00087       -0.44792       -0.26042        0.00000
 BRILLOUIN|   109           0.00087       -0.44792       -0.23958        0.00000
 BRILLOUIN|   110           0.00087       -0.44792       -0.21875        0.00000
 BRILLOUIN|   111           0.00087       -0.44792       -0.19792        0.00000
 BRILLOUIN|   112           0.00087       -0.44792       -0.17708        0.00000
 BRILLOUIN|   113           0.00087       -0.44792       -0.15625        0.00000
 BRILLOUIN|   114           0.00087       -0.44792       -0.13542        0.00000
 BRILLOUIN|   115           0.00087       -0.44792       -0.11458        0.00000
 BRILLOUIN|   116           0.00087       -0.44792       -0.09375        0.00000
 BRILLOUIN|   117           0.00087       -0.44792       -0.07292        0.00000
 BRILLOUIN|   118           0.00087       -0.44792       -0.05208        0.00000
 BRILLOUIN|   119           0.00087       -0.44792       -0.03125        0.00000
 BRILLOUIN|   120           0.00087       -0.44792       -0.01042        0.00000
 BRILLOUIN|   121           0.00087       -0.44792        0.01042        0.00000
 BRILLOUIN|   122           0.00087       -0.44792        0.03125        0.00000
 BRILLOUIN|   123           0.00087       -0.44792        0.05208        0.00000
 BRILLOUIN|   124           0.00087       -0.44792        0.07292        0.00000
 BRILLOUIN|   125           0.00087       -0.44792        0.09375        0.00000
 BRILLOUIN|   126           0.00087       -0.44792        0.11458        0.00000
 BRILLOUIN|   127           0.00087       -0.44792        0.13542        0.00000
 BRILLOUIN|   128           0.00087       -0.44792        0.15625        0.00000
 BRILLOUIN|   129           0.00087       -0.44792        0.17708        0.00000
 BRILLOUIN|   130           0.00087       -0.44792        0.19792        0.00000
 BRILLOUIN|   131           0.00087       -0.44792        0.21875        0.00000
 BRILLOUIN|   132           0.00087       -0.44792        0.23958        0.00000
 BRILLOUIN|   133           0.00087       -0.44792        0.26042        0.00000
 BRILLOUIN|   134           0.00087       -0.44792        0.28125        0.00000
 BRILLOUIN|   135           0.00087       -0.44792        0.30208        0.00000
 BRILLOUIN|   136           0.00087       -0.44792        0.32292        0.00000
 BRILLOUIN|   137           0.00087       -0.44792        0.34375        0.00000
 BRILLOUIN|   138           0.00087       -0.44792        0.36458        0.00000
 BRILLOUIN|   139           0.00087       -0.44792        0.38542        0.00000
 BRILLOUIN|   140           0.00087       -0.44792        0.40625        0.00000
 BRILLOUIN|   141           0.00087       -0.44792        0.42708        0.00000
 BRILLOUIN|   142           0.00087       -0.44792        0.44792        0.00000
 BRILLOUIN|   143           0.00087       -0.44792        0.46875        0.00000
 BRILLOUIN|   144           0.00087       -0.44792        0.48958        0.00000
 BRILLOUIN|   145           0.00087       -0.42708       -0.48958        0.00000
 BRILLOUIN|   146           0.00087       -0.42708       -0.46875        0.00000
 BRILLOUIN|   147           0.00087       -0.42708       -0.44792        0.00000
 BRILLOUIN|   148           0.00087       -0.42708       -0.42708        0.00000
 BRILLOUIN|   149           0.00087       -0.42708       -0.40625        0.00000
 BRILLOUIN|   150           0.00087       -0.42708       -0.38542        0.00000
 BRILLOUIN|   151           0.00087       -0.42708       -0.36458        0.00000
 BRILLOUIN|   152           0.00087       -0.42708       -0.34375        0.00000
 BRILLOUIN|   153           0.00087       -0.42708       -0.32292        0.00000
 BRILLOUIN|   154           0.00087       -0.42708       -0.30208        0.00000
 BRILLOUIN|   155           0.00087       -0.42708       -0.28125        0.00000
 BRILLOUIN|   156           0.00087       -0.42708       -0.26042        0.00000
 BRILLOUIN|   157           0.00087       -0.42708       -0.23958        0.00000
 BRILLOUIN|   158           0.00087       -0.42708       -0.21875        0.00000
 BRILLOUIN|   159           0.00087       -0.42708       -0.19792        0.00000
 BRILLOUIN|   160           0.00087       -0.42708       -0.17708        0.00000
 BRILLOUIN|   161           0.00087       -0.42708       -0.15625        0.00000
 BRILLOUIN|   162           0.00087       -0.42708       -0.13542        0.00000
 BRILLOUIN|   163           0.00087       -0.42708       -0.11458        0.00000
 BRILLOUIN|   164           0.00087       -0.42708       -0.09375        0.00000
 BRILLOUIN|   165           0.00087       -0.42708       -0.07292        0.00000
 BRILLOUIN|   166           0.00087       -0.42708       -0.05208        0.00000
 BRILLOUIN|   167           0.00087       -0.42708       -0.03125        0.00000
 BRILLOUIN|   168           0.00087       -0.42708       -0.01042        0.00000
 BRILLOUIN|   169           0.00087       -0.42708        0.01042        0.00000
 BRILLOUIN|   170           0.00087       -0.42708        0.03125        0.00000
 BRILLOUIN|   171           0.00087       -0.42708        0.05208        0.00000
 BRILLOUIN|   172           0.00087       -0.42708        0.07292        0.00000
 BRILLOUIN|   173           0.00087       -0.42708        0.09375        0.00000
 BRILLOUIN|   174           0.00087       -0.42708        0.11458        0.00000
 BRILLOUIN|   175           0.00087       -0.42708        0.13542        0.00000
 BRILLOUIN|   176           0.00087       -0.42708        0.15625        0.00000
 BRILLOUIN|   177           0.00087       -0.42708        0.17708        0.00000
 BRILLOUIN|   178           0.00087       -0.42708        0.19792        0.00000
 BRILLOUIN|   179           0.00087       -0.42708        0.21875        0.00000
 BRILLOUIN|   180           0.00087       -0.42708        0.23958        0.00000
 BRILLOUIN|   181           0.00087       -0.42708        0.26042        0.00000
 BRILLOUIN|   182           0.00087       -0.42708        0.28125        0.00000
 BRILLOUIN|   183           0.00087       -0.42708        0.30208        0.00000
 BRILLOUIN|   184           0.00087       -0.42708        0.32292        0.00000
 BRILLOUIN|   185           0.00087       -0.42708        0.34375        0.00000
 BRILLOUIN|   186           0.00087       -0.42708        0.36458        0.00000
 BRILLOUIN|   187           0.00087       -0.42708        0.38542        0.00000
 BRILLOUIN|   188           0.00087       -0.42708        0.40625        0.00000
 BRILLOUIN|   189           0.00087       -0.42708        0.42708        0.00000
 BRILLOUIN|   190           0.00087       -0.42708        0.44792        0.00000
 BRILLOUIN|   191           0.00087       -0.42708        0.46875        0.00000
 BRILLOUIN|   192           0.00087       -0.42708        0.48958        0.00000
 BRILLOUIN|   193           0.00087       -0.40625       -0.48958        0.00000
 BRILLOUIN|   194           0.00087       -0.40625       -0.46875        0.00000
 BRILLOUIN|   195           0.00087       -0.40625       -0.44792        0.00000
 BRILLOUIN|   196           0.00087       -0.40625       -0.42708        0.00000
 BRILLOUIN|   197           0.00087       -0.40625       -0.40625        0.00000
 BRILLOUIN|   198           0.00087       -0.40625       -0.38542        0.00000
 BRILLOUIN|   199           0.00087       -0.40625       -0.36458        0.00000
 BRILLOUIN|   200           0.00087       -0.40625       -0.34375        0.00000
 BRILLOUIN|   201           0.00087       -0.40625       -0.32292        0.00000
 BRILLOUIN|   202           0.00087       -0.40625       -0.30208        0.00000
 BRILLOUIN|   203           0.00087       -0.40625       -0.28125        0.00000
 BRILLOUIN|   204           0.00087       -0.40625       -0.26042        0.00000
 BRILLOUIN|   205           0.00087       -0.40625       -0.23958        0.00000
 BRILLOUIN|   206           0.00087       -0.40625       -0.21875        0.00000
 BRILLOUIN|   207           0.00087       -0.40625       -0.19792        0.00000
 BRILLOUIN|   208           0.00087       -0.40625       -0.17708        0.00000
 BRILLOUIN|   209           0.00087       -0.40625       -0.15625        0.00000
 BRILLOUIN|   210           0.00087       -0.40625       -0.13542        0.00000
 BRILLOUIN|   211           0.00087       -0.40625       -0.11458        0.00000
 BRILLOUIN|   212           0.00087       -0.40625       -0.09375        0.00000
 BRILLOUIN|   213           0.00087       -0.40625       -0.07292        0.00000
 BRILLOUIN|   214           0.00087       -0.40625       -0.05208        0.00000
 BRILLOUIN|   215           0.00087       -0.40625       -0.03125        0.00000
 BRILLOUIN|   216           0.00087       -0.40625       -0.01042        0.00000
 BRILLOUIN|   217           0.00087       -0.40625        0.01042        0.00000
 BRILLOUIN|   218           0.00087       -0.40625        0.03125        0.00000
 BRILLOUIN|   219           0.00087       -0.40625        0.05208        0.00000
 BRILLOUIN|   220           0.00087       -0.40625        0.07292        0.00000
 BRILLOUIN|   221           0.00087       -0.40625        0.09375        0.00000
 BRILLOUIN|   222           0.00087       -0.40625        0.11458        0.00000
 BRILLOUIN|   223           0.00087       -0.40625        0.13542        0.00000
 BRILLOUIN|   224           0.00087       -0.40625        0.15625        0.00000
 BRILLOUIN|   225           0.00087       -0.40625        0.17708        0.00000
 BRILLOUIN|   226           0.00087       -0.40625        0.19792        0.00000
 BRILLOUIN|   227           0.00087       -0.40625        0.21875        0.00000
 BRILLOUIN|   228           0.00087       -0.40625        0.23958        0.00000
 BRILLOUIN|   229           0.00087       -0.40625        0.26042        0.00000
 BRILLOUIN|   230           0.00087       -0.40625        0.28125        0.00000
 BRILLOUIN|   231           0.00087       -0.40625        0.30208        0.00000
 BRILLOUIN|   232           0.00087       -0.40625        0.32292        0.00000
 BRILLOUIN|   233           0.00087       -0.40625        0.34375        0.00000
 BRILLOUIN|   234           0.00087       -0.40625        0.36458        0.00000
 BRILLOUIN|   235           0.00087       -0.40625        0.38542        0.00000
 BRILLOUIN|   236           0.00087       -0.40625        0.40625        0.00000
 BRILLOUIN|   237           0.00087       -0.40625        0.42708        0.00000
 BRILLOUIN|   238           0.00087       -0.40625        0.44792        0.00000
 BRILLOUIN|   239           0.00087       -0.40625        0.46875        0.00000
 BRILLOUIN|   240           0.00087       -0.40625        0.48958        0.00000
 BRILLOUIN|   241           0.00087       -0.38542       -0.48958        0.00000
 BRILLOUIN|   242           0.00087       -0.38542       -0.46875        0.00000
 BRILLOUIN|   243           0.00087       -0.38542       -0.44792        0.00000
 BRILLOUIN|   244           0.00087       -0.38542       -0.42708        0.00000
 BRILLOUIN|   245           0.00087       -0.38542       -0.40625        0.00000
 BRILLOUIN|   246           0.00087       -0.38542       -0.38542        0.00000
 BRILLOUIN|   247           0.00087       -0.38542       -0.36458        0.00000
 BRILLOUIN|   248           0.00087       -0.38542       -0.34375        0.00000
 BRILLOUIN|   249           0.00087       -0.38542       -0.32292        0.00000
 BRILLOUIN|   250           0.00087       -0.38542       -0.30208        0.00000
 BRILLOUIN|   251           0.00087       -0.38542       -0.28125        0.00000
 BRILLOUIN|   252           0.00087       -0.38542       -0.26042        0.00000
 BRILLOUIN|   253           0.00087       -0.38542       -0.23958        0.00000
 BRILLOUIN|   254           0.00087       -0.38542       -0.21875        0.00000
 BRILLOUIN|   255           0.00087       -0.38542       -0.19792        0.00000
 BRILLOUIN|   256           0.00087       -0.38542       -0.17708        0.00000
 BRILLOUIN|   257           0.00087       -0.38542       -0.15625        0.00000
 BRILLOUIN|   258           0.00087       -0.38542       -0.13542        0.00000
 BRILLOUIN|   259           0.00087       -0.38542       -0.11458        0.00000
 BRILLOUIN|   260           0.00087       -0.38542       -0.09375        0.00000
 BRILLOUIN|   261           0.00087       -0.38542       -0.07292        0.00000
 BRILLOUIN|   262           0.00087       -0.38542       -0.05208        0.00000
 BRILLOUIN|   263           0.00087       -0.38542       -0.03125        0.00000
 BRILLOUIN|   264           0.00087       -0.38542       -0.01042        0.00000
 BRILLOUIN|   265           0.00087       -0.38542        0.01042        0.00000
 BRILLOUIN|   266           0.00087       -0.38542        0.03125        0.00000
 BRILLOUIN|   267           0.00087       -0.38542        0.05208        0.00000
 BRILLOUIN|   268           0.00087       -0.38542        0.07292        0.00000
 BRILLOUIN|   269           0.00087       -0.38542        0.09375        0.00000
 BRILLOUIN|   270           0.00087       -0.38542        0.11458        0.00000
 BRILLOUIN|   271           0.00087       -0.38542        0.13542        0.00000
 BRILLOUIN|   272           0.00087       -0.38542        0.15625        0.00000
 BRILLOUIN|   273           0.00087       -0.38542        0.17708        0.00000
 BRILLOUIN|   274           0.00087       -0.38542        0.19792        0.00000
 BRILLOUIN|   275           0.00087       -0.38542        0.21875        0.00000
 BRILLOUIN|   276           0.00087       -0.38542        0.23958        0.00000
 BRILLOUIN|   277           0.00087       -0.38542        0.26042        0.00000
 BRILLOUIN|   278           0.00087       -0.38542        0.28125        0.00000
 BRILLOUIN|   279           0.00087       -0.38542        0.30208        0.00000
 BRILLOUIN|   280           0.00087       -0.38542        0.32292        0.00000
 BRILLOUIN|   281           0.00087       -0.38542        0.34375        0.00000
 BRILLOUIN|   282           0.00087       -0.38542        0.36458        0.00000
 BRILLOUIN|   283           0.00087       -0.38542        0.38542        0.00000
 BRILLOUIN|   284           0.00087       -0.38542        0.40625        0.00000
 BRILLOUIN|   285           0.00087       -0.38542        0.42708        0.00000
 BRILLOUIN|   286           0.00087       -0.38542        0.44792        0.00000
 BRILLOUIN|   287           0.00087       -0.38542        0.46875        0.00000
 BRILLOUIN|   288           0.00087       -0.38542        0.48958        0.00000
 BRILLOUIN|   289           0.00087       -0.36458       -0.48958        0.00000
 BRILLOUIN|   290           0.00087       -0.36458       -0.46875        0.00000
 BRILLOUIN|   291           0.00087       -0.36458       -0.44792        0.00000
 BRILLOUIN|   292           0.00087       -0.36458       -0.42708        0.00000
 BRILLOUIN|   293           0.00087       -0.36458       -0.40625        0.00000
 BRILLOUIN|   294           0.00087       -0.36458       -0.38542        0.00000
 BRILLOUIN|   295           0.00087       -0.36458       -0.36458        0.00000
 BRILLOUIN|   296           0.00087       -0.36458       -0.34375        0.00000
 BRILLOUIN|   297           0.00087       -0.36458       -0.32292        0.00000
 BRILLOUIN|   298           0.00087       -0.36458       -0.30208        0.00000
 BRILLOUIN|   299           0.00087       -0.36458       -0.28125        0.00000
 BRILLOUIN|   300           0.00087       -0.36458       -0.26042        0.00000
 BRILLOUIN|   301           0.00087       -0.36458       -0.23958        0.00000
 BRILLOUIN|   302           0.00087       -0.36458       -0.21875        0.00000
 BRILLOUIN|   303           0.00087       -0.36458       -0.19792        0.00000
 BRILLOUIN|   304           0.00087       -0.36458       -0.17708        0.00000
 BRILLOUIN|   305           0.00087       -0.36458       -0.15625        0.00000
 BRILLOUIN|   306           0.00087       -0.36458       -0.13542        0.00000
 BRILLOUIN|   307           0.00087       -0.36458       -0.11458        0.00000
 BRILLOUIN|   308           0.00087       -0.36458       -0.09375        0.00000
 BRILLOUIN|   309           0.00087       -0.36458       -0.07292        0.00000
 BRILLOUIN|   310           0.00087       -0.36458       -0.05208        0.00000
 BRILLOUIN|   311           0.00087       -0.36458       -0.03125        0.00000
 BRILLOUIN|   312           0.00087       -0.36458       -0.01042        0.00000
 BRILLOUIN|   313           0.00087       -0.36458        0.01042        0.00000
 BRILLOUIN|   314           0.00087       -0.36458        0.03125        0.00000
 BRILLOUIN|   315           0.00087       -0.36458        0.05208        0.00000
 BRILLOUIN|   316           0.00087       -0.36458        0.07292        0.00000
 BRILLOUIN|   317           0.00087       -0.36458        0.09375        0.00000
 BRILLOUIN|   318           0.00087       -0.36458        0.11458        0.00000
 BRILLOUIN|   319           0.00087       -0.36458        0.13542        0.00000
 BRILLOUIN|   320           0.00087       -0.36458        0.15625        0.00000
 BRILLOUIN|   321           0.00087       -0.36458        0.17708        0.00000
 BRILLOUIN|   322           0.00087       -0.36458        0.19792        0.00000
 BRILLOUIN|   323           0.00087       -0.36458        0.21875        0.00000
 BRILLOUIN|   324           0.00087       -0.36458        0.23958        0.00000
 BRILLOUIN|   325           0.00087       -0.36458        0.26042        0.00000
 BRILLOUIN|   326           0.00087       -0.36458        0.28125        0.00000
 BRILLOUIN|   327           0.00087       -0.36458        0.30208        0.00000
 BRILLOUIN|   328           0.00087       -0.36458        0.32292        0.00000
 BRILLOUIN|   329           0.00087       -0.36458        0.34375        0.00000
 BRILLOUIN|   330           0.00087       -0.36458        0.36458        0.00000
 BRILLOUIN|   331           0.00087       -0.36458        0.38542        0.00000
 BRILLOUIN|   332           0.00087       -0.36458        0.40625        0.00000
 BRILLOUIN|   333           0.00087       -0.36458        0.42708        0.00000
 BRILLOUIN|   334           0.00087       -0.36458        0.44792        0.00000
 BRILLOUIN|   335           0.00087       -0.36458        0.46875        0.00000
 BRILLOUIN|   336           0.00087       -0.36458        0.48958        0.00000
 BRILLOUIN|   337           0.00087       -0.34375       -0.48958        0.00000
 BRILLOUIN|   338           0.00087       -0.34375       -0.46875        0.00000
 BRILLOUIN|   339           0.00087       -0.34375       -0.44792        0.00000
 BRILLOUIN|   340           0.00087       -0.34375       -0.42708        0.00000
 BRILLOUIN|   341           0.00087       -0.34375       -0.40625        0.00000
 BRILLOUIN|   342           0.00087       -0.34375       -0.38542        0.00000
 BRILLOUIN|   343           0.00087       -0.34375       -0.36458        0.00000
 BRILLOUIN|   344           0.00087       -0.34375       -0.34375        0.00000
 BRILLOUIN|   345           0.00087       -0.34375       -0.32292        0.00000
 BRILLOUIN|   346           0.00087       -0.34375       -0.30208        0.00000
 BRILLOUIN|   347           0.00087       -0.34375       -0.28125        0.00000
 BRILLOUIN|   348           0.00087       -0.34375       -0.26042        0.00000
 BRILLOUIN|   349           0.00087       -0.34375       -0.23958        0.00000
 BRILLOUIN|   350           0.00087       -0.34375       -0.21875        0.00000
 BRILLOUIN|   351           0.00087       -0.34375       -0.19792        0.00000
 BRILLOUIN|   352           0.00087       -0.34375       -0.17708        0.00000
 BRILLOUIN|   353           0.00087       -0.34375       -0.15625        0.00000
 BRILLOUIN|   354           0.00087       -0.34375       -0.13542        0.00000
 BRILLOUIN|   355           0.00087       -0.34375       -0.11458        0.00000
 BRILLOUIN|   356           0.00087       -0.34375       -0.09375        0.00000
 BRILLOUIN|   357           0.00087       -0.34375       -0.07292        0.00000
 BRILLOUIN|   358           0.00087       -0.34375       -0.05208        0.00000
 BRILLOUIN|   359           0.00087       -0.34375       -0.03125        0.00000
 BRILLOUIN|   360           0.00087       -0.34375       -0.01042        0.00000
 BRILLOUIN|   361           0.00087       -0.34375        0.01042        0.00000
 BRILLOUIN|   362           0.00087       -0.34375        0.03125        0.00000
 BRILLOUIN|   363           0.00087       -0.34375        0.05208        0.00000
 BRILLOUIN|   364           0.00087       -0.34375        0.07292        0.00000
 BRILLOUIN|   365           0.00087       -0.34375        0.09375        0.00000
 BRILLOUIN|   366           0.00087       -0.34375        0.11458        0.00000
 BRILLOUIN|   367           0.00087       -0.34375        0.13542        0.00000
 BRILLOUIN|   368           0.00087       -0.34375        0.15625        0.00000
 BRILLOUIN|   369           0.00087       -0.34375        0.17708        0.00000
 BRILLOUIN|   370           0.00087       -0.34375        0.19792        0.00000
 BRILLOUIN|   371           0.00087       -0.34375        0.21875        0.00000
 BRILLOUIN|   372           0.00087       -0.34375        0.23958        0.00000
 BRILLOUIN|   373           0.00087       -0.34375        0.26042        0.00000
 BRILLOUIN|   374           0.00087       -0.34375        0.28125        0.00000
 BRILLOUIN|   375           0.00087       -0.34375        0.30208        0.00000
 BRILLOUIN|   376           0.00087       -0.34375        0.32292        0.00000
 BRILLOUIN|   377           0.00087       -0.34375        0.34375        0.00000
 BRILLOUIN|   378           0.00087       -0.34375        0.36458        0.00000
 BRILLOUIN|   379           0.00087       -0.34375        0.38542        0.00000
 BRILLOUIN|   380           0.00087       -0.34375        0.40625        0.00000
 BRILLOUIN|   381           0.00087       -0.34375        0.42708        0.00000
 BRILLOUIN|   382           0.00087       -0.34375        0.44792        0.00000
 BRILLOUIN|   383           0.00087       -0.34375        0.46875        0.00000
 BRILLOUIN|   384           0.00087       -0.34375        0.48958        0.00000
 BRILLOUIN|   385           0.00087       -0.32292       -0.48958        0.00000
 BRILLOUIN|   386           0.00087       -0.32292       -0.46875        0.00000
 BRILLOUIN|   387           0.00087       -0.32292       -0.44792        0.00000
 BRILLOUIN|   388           0.00087       -0.32292       -0.42708        0.00000
 BRILLOUIN|   389           0.00087       -0.32292       -0.40625        0.00000
 BRILLOUIN|   390           0.00087       -0.32292       -0.38542        0.00000
 BRILLOUIN|   391           0.00087       -0.32292       -0.36458        0.00000
 BRILLOUIN|   392           0.00087       -0.32292       -0.34375        0.00000
 BRILLOUIN|   393           0.00087       -0.32292       -0.32292        0.00000
 BRILLOUIN|   394           0.00087       -0.32292       -0.30208        0.00000
 BRILLOUIN|   395           0.00087       -0.32292       -0.28125        0.00000
 BRILLOUIN|   396           0.00087       -0.32292       -0.26042        0.00000
 BRILLOUIN|   397           0.00087       -0.32292       -0.23958        0.00000
 BRILLOUIN|   398           0.00087       -0.32292       -0.21875        0.00000
 BRILLOUIN|   399           0.00087       -0.32292       -0.19792        0.00000
 BRILLOUIN|   400           0.00087       -0.32292       -0.17708        0.00000
 BRILLOUIN|   401           0.00087       -0.32292       -0.15625        0.00000
 BRILLOUIN|   402           0.00087       -0.32292       -0.13542        0.00000
 BRILLOUIN|   403           0.00087       -0.32292       -0.11458        0.00000
 BRILLOUIN|   404           0.00087       -0.32292       -0.09375        0.00000
 BRILLOUIN|   405           0.00087       -0.32292       -0.07292        0.00000
 BRILLOUIN|   406           0.00087       -0.32292       -0.05208        0.00000
 BRILLOUIN|   407           0.00087       -0.32292       -0.03125        0.00000
 BRILLOUIN|   408           0.00087       -0.32292       -0.01042        0.00000
 BRILLOUIN|   409           0.00087       -0.32292        0.01042        0.00000
 BRILLOUIN|   410           0.00087       -0.32292        0.03125        0.00000
 BRILLOUIN|   411           0.00087       -0.32292        0.05208        0.00000
 BRILLOUIN|   412           0.00087       -0.32292        0.07292        0.00000
 BRILLOUIN|   413           0.00087       -0.32292        0.09375        0.00000
 BRILLOUIN|   414           0.00087       -0.32292        0.11458        0.00000
 BRILLOUIN|   415           0.00087       -0.32292        0.13542        0.00000
 BRILLOUIN|   416           0.00087       -0.32292        0.15625        0.00000
 BRILLOUIN|   417           0.00087       -0.32292        0.17708        0.00000
 BRILLOUIN|   418           0.00087       -0.32292        0.19792        0.00000
 BRILLOUIN|   419           0.00087       -0.32292        0.21875        0.00000
 BRILLOUIN|   420           0.00087       -0.32292        0.23958        0.00000
 BRILLOUIN|   421           0.00087       -0.32292        0.26042        0.00000
 BRILLOUIN|   422           0.00087       -0.32292        0.28125        0.00000
 BRILLOUIN|   423           0.00087       -0.32292        0.30208        0.00000
 BRILLOUIN|   424           0.00087       -0.32292        0.32292        0.00000
 BRILLOUIN|   425           0.00087       -0.32292        0.34375        0.00000
 BRILLOUIN|   426           0.00087       -0.32292        0.36458        0.00000
 BRILLOUIN|   427           0.00087       -0.32292        0.38542        0.00000
 BRILLOUIN|   428           0.00087       -0.32292        0.40625        0.00000
 BRILLOUIN|   429           0.00087       -0.32292        0.42708        0.00000
 BRILLOUIN|   430           0.00087       -0.32292        0.44792        0.00000
 BRILLOUIN|   431           0.00087       -0.32292        0.46875        0.00000
 BRILLOUIN|   432           0.00087       -0.32292        0.48958        0.00000
 BRILLOUIN|   433           0.00087       -0.30208       -0.48958        0.00000
 BRILLOUIN|   434           0.00087       -0.30208       -0.46875        0.00000
 BRILLOUIN|   435           0.00087       -0.30208       -0.44792        0.00000
 BRILLOUIN|   436           0.00087       -0.30208       -0.42708        0.00000
 BRILLOUIN|   437           0.00087       -0.30208       -0.40625        0.00000
 BRILLOUIN|   438           0.00087       -0.30208       -0.38542        0.00000
 BRILLOUIN|   439           0.00087       -0.30208       -0.36458        0.00000
 BRILLOUIN|   440           0.00087       -0.30208       -0.34375        0.00000
 BRILLOUIN|   441           0.00087       -0.30208       -0.32292        0.00000
 BRILLOUIN|   442           0.00087       -0.30208       -0.30208        0.00000
 BRILLOUIN|   443           0.00087       -0.30208       -0.28125        0.00000
 BRILLOUIN|   444           0.00087       -0.30208       -0.26042        0.00000
 BRILLOUIN|   445           0.00087       -0.30208       -0.23958        0.00000
 BRILLOUIN|   446           0.00087       -0.30208       -0.21875        0.00000
 BRILLOUIN|   447           0.00087       -0.30208       -0.19792        0.00000
 BRILLOUIN|   448           0.00087       -0.30208       -0.17708        0.00000
 BRILLOUIN|   449           0.00087       -0.30208       -0.15625        0.00000
 BRILLOUIN|   450           0.00087       -0.30208       -0.13542        0.00000
 BRILLOUIN|   451           0.00087       -0.30208       -0.11458        0.00000
 BRILLOUIN|   452           0.00087       -0.30208       -0.09375        0.00000
 BRILLOUIN|   453           0.00087       -0.30208       -0.07292        0.00000
 BRILLOUIN|   454           0.00087       -0.30208       -0.05208        0.00000
 BRILLOUIN|   455           0.00087       -0.30208       -0.03125        0.00000
 BRILLOUIN|   456           0.00087       -0.30208       -0.01042        0.00000
 BRILLOUIN|   457           0.00087       -0.30208        0.01042        0.00000
 BRILLOUIN|   458           0.00087       -0.30208        0.03125        0.00000
 BRILLOUIN|   459           0.00087       -0.30208        0.05208        0.00000
 BRILLOUIN|   460           0.00087       -0.30208        0.07292        0.00000
 BRILLOUIN|   461           0.00087       -0.30208        0.09375        0.00000
 BRILLOUIN|   462           0.00087       -0.30208        0.11458        0.00000
 BRILLOUIN|   463           0.00087       -0.30208        0.13542        0.00000
 BRILLOUIN|   464           0.00087       -0.30208        0.15625        0.00000
 BRILLOUIN|   465           0.00087       -0.30208        0.17708        0.00000
 BRILLOUIN|   466           0.00087       -0.30208        0.19792        0.00000
 BRILLOUIN|   467           0.00087       -0.30208        0.21875        0.00000
 BRILLOUIN|   468           0.00087       -0.30208        0.23958        0.00000
 BRILLOUIN|   469           0.00087       -0.30208        0.26042        0.00000
 BRILLOUIN|   470           0.00087       -0.30208        0.28125        0.00000
 BRILLOUIN|   471           0.00087       -0.30208        0.30208        0.00000
 BRILLOUIN|   472           0.00087       -0.30208        0.32292        0.00000
 BRILLOUIN|   473           0.00087       -0.30208        0.34375        0.00000
 BRILLOUIN|   474           0.00087       -0.30208        0.36458        0.00000
 BRILLOUIN|   475           0.00087       -0.30208        0.38542        0.00000
 BRILLOUIN|   476           0.00087       -0.30208        0.40625        0.00000
 BRILLOUIN|   477           0.00087       -0.30208        0.42708        0.00000
 BRILLOUIN|   478           0.00087       -0.30208        0.44792        0.00000
 BRILLOUIN|   479           0.00087       -0.30208        0.46875        0.00000
 BRILLOUIN|   480           0.00087       -0.30208        0.48958        0.00000
 BRILLOUIN|   481           0.00087       -0.28125       -0.48958        0.00000
 BRILLOUIN|   482           0.00087       -0.28125       -0.46875        0.00000
 BRILLOUIN|   483           0.00087       -0.28125       -0.44792        0.00000
 BRILLOUIN|   484           0.00087       -0.28125       -0.42708        0.00000
 BRILLOUIN|   485           0.00087       -0.28125       -0.40625        0.00000
 BRILLOUIN|   486           0.00087       -0.28125       -0.38542        0.00000
 BRILLOUIN|   487           0.00087       -0.28125       -0.36458        0.00000
 BRILLOUIN|   488           0.00087       -0.28125       -0.34375        0.00000
 BRILLOUIN|   489           0.00087       -0.28125       -0.32292        0.00000
 BRILLOUIN|   490           0.00087       -0.28125       -0.30208        0.00000
 BRILLOUIN|   491           0.00087       -0.28125       -0.28125        0.00000
 BRILLOUIN|   492           0.00087       -0.28125       -0.26042        0.00000
 BRILLOUIN|   493           0.00087       -0.28125       -0.23958        0.00000
 BRILLOUIN|   494           0.00087       -0.28125       -0.21875        0.00000
 BRILLOUIN|   495           0.00087       -0.28125       -0.19792        0.00000
 BRILLOUIN|   496           0.00087       -0.28125       -0.17708        0.00000
 BRILLOUIN|   497           0.00087       -0.28125       -0.15625        0.00000
 BRILLOUIN|   498           0.00087       -0.28125       -0.13542        0.00000
 BRILLOUIN|   499           0.00087       -0.28125       -0.11458        0.00000
 BRILLOUIN|   500           0.00087       -0.28125       -0.09375        0.00000
 BRILLOUIN|   501           0.00087       -0.28125       -0.07292        0.00000
 BRILLOUIN|   502           0.00087       -0.28125       -0.05208        0.00000
 BRILLOUIN|   503           0.00087       -0.28125       -0.03125        0.00000
 BRILLOUIN|   504           0.00087       -0.28125       -0.01042        0.00000
 BRILLOUIN|   505           0.00087       -0.28125        0.01042        0.00000
 BRILLOUIN|   506           0.00087       -0.28125        0.03125        0.00000
 BRILLOUIN|   507           0.00087       -0.28125        0.05208        0.00000
 BRILLOUIN|   508           0.00087       -0.28125        0.07292        0.00000
 BRILLOUIN|   509           0.00087       -0.28125        0.09375        0.00000
 BRILLOUIN|   510           0.00087       -0.28125        0.11458        0.00000
 BRILLOUIN|   511           0.00087       -0.28125        0.13542        0.00000
 BRILLOUIN|   512           0.00087       -0.28125        0.15625        0.00000
 BRILLOUIN|   513           0.00087       -0.28125        0.17708        0.00000
 BRILLOUIN|   514           0.00087       -0.28125        0.19792        0.00000
 BRILLOUIN|   515           0.00087       -0.28125        0.21875        0.00000
 BRILLOUIN|   516           0.00087       -0.28125        0.23958        0.00000
 BRILLOUIN|   517           0.00087       -0.28125        0.26042        0.00000
 BRILLOUIN|   518           0.00087       -0.28125        0.28125        0.00000
 BRILLOUIN|   519           0.00087       -0.28125        0.30208        0.00000
 BRILLOUIN|   520           0.00087       -0.28125        0.32292        0.00000
 BRILLOUIN|   521           0.00087       -0.28125        0.34375        0.00000
 BRILLOUIN|   522           0.00087       -0.28125        0.36458        0.00000
 BRILLOUIN|   523           0.00087       -0.28125        0.38542        0.00000
 BRILLOUIN|   524           0.00087       -0.28125        0.40625        0.00000
 BRILLOUIN|   525           0.00087       -0.28125        0.42708        0.00000
 BRILLOUIN|   526           0.00087       -0.28125        0.44792        0.00000
 BRILLOUIN|   527           0.00087       -0.28125        0.46875        0.00000
 BRILLOUIN|   528           0.00087       -0.28125        0.48958        0.00000
 BRILLOUIN|   529           0.00087       -0.26042       -0.48958        0.00000
 BRILLOUIN|   530           0.00087       -0.26042       -0.46875        0.00000
 BRILLOUIN|   531           0.00087       -0.26042       -0.44792        0.00000
 BRILLOUIN|   532           0.00087       -0.26042       -0.42708        0.00000
 BRILLOUIN|   533           0.00087       -0.26042       -0.40625        0.00000
 BRILLOUIN|   534           0.00087       -0.26042       -0.38542        0.00000
 BRILLOUIN|   535           0.00087       -0.26042       -0.36458        0.00000
 BRILLOUIN|   536           0.00087       -0.26042       -0.34375        0.00000
 BRILLOUIN|   537           0.00087       -0.26042       -0.32292        0.00000
 BRILLOUIN|   538           0.00087       -0.26042       -0.30208        0.00000
 BRILLOUIN|   539           0.00087       -0.26042       -0.28125        0.00000
 BRILLOUIN|   540           0.00087       -0.26042       -0.26042        0.00000
 BRILLOUIN|   541           0.00087       -0.26042       -0.23958        0.00000
 BRILLOUIN|   542           0.00087       -0.26042       -0.21875        0.00000
 BRILLOUIN|   543           0.00087       -0.26042       -0.19792        0.00000
 BRILLOUIN|   544           0.00087       -0.26042       -0.17708        0.00000
 BRILLOUIN|   545           0.00087       -0.26042       -0.15625        0.00000
 BRILLOUIN|   546           0.00087       -0.26042       -0.13542        0.00000
 BRILLOUIN|   547           0.00087       -0.26042       -0.11458        0.00000
 BRILLOUIN|   548           0.00087       -0.26042       -0.09375        0.00000
 BRILLOUIN|   549           0.00087       -0.26042       -0.07292        0.00000
 BRILLOUIN|   550           0.00087       -0.26042       -0.05208        0.00000
 BRILLOUIN|   551           0.00087       -0.26042       -0.03125        0.00000
 BRILLOUIN|   552           0.00087       -0.26042       -0.01042        0.00000
 BRILLOUIN|   553           0.00087       -0.26042        0.01042        0.00000
 BRILLOUIN|   554           0.00087       -0.26042        0.03125        0.00000
 BRILLOUIN|   555           0.00087       -0.26042        0.05208        0.00000
 BRILLOUIN|   556           0.00087       -0.26042        0.07292        0.00000
 BRILLOUIN|   557           0.00087       -0.26042        0.09375        0.00000
 BRILLOUIN|   558           0.00087       -0.26042        0.11458        0.00000
 BRILLOUIN|   559           0.00087       -0.26042        0.13542        0.00000
 BRILLOUIN|   560           0.00087       -0.26042        0.15625        0.00000
 BRILLOUIN|   561           0.00087       -0.26042        0.17708        0.00000
 BRILLOUIN|   562           0.00087       -0.26042        0.19792        0.00000
 BRILLOUIN|   563           0.00087       -0.26042        0.21875        0.00000
 BRILLOUIN|   564           0.00087       -0.26042        0.23958        0.00000
 BRILLOUIN|   565           0.00087       -0.26042        0.26042        0.00000
 BRILLOUIN|   566           0.00087       -0.26042        0.28125        0.00000
 BRILLOUIN|   567           0.00087       -0.26042        0.30208        0.00000
 BRILLOUIN|   568           0.00087       -0.26042        0.32292        0.00000
 BRILLOUIN|   569           0.00087       -0.26042        0.34375        0.00000
 BRILLOUIN|   570           0.00087       -0.26042        0.36458        0.00000
 BRILLOUIN|   571           0.00087       -0.26042        0.38542        0.00000
 BRILLOUIN|   572           0.00087       -0.26042        0.40625        0.00000
 BRILLOUIN|   573           0.00087       -0.26042        0.42708        0.00000
 BRILLOUIN|   574           0.00087       -0.26042        0.44792        0.00000
 BRILLOUIN|   575           0.00087       -0.26042        0.46875        0.00000
 BRILLOUIN|   576           0.00087       -0.26042        0.48958        0.00000
 BRILLOUIN|   577           0.00087       -0.23958       -0.48958        0.00000
 BRILLOUIN|   578           0.00087       -0.23958       -0.46875        0.00000
 BRILLOUIN|   579           0.00087       -0.23958       -0.44792        0.00000
 BRILLOUIN|   580           0.00087       -0.23958       -0.42708        0.00000
 BRILLOUIN|   581           0.00087       -0.23958       -0.40625        0.00000
 BRILLOUIN|   582           0.00087       -0.23958       -0.38542        0.00000
 BRILLOUIN|   583           0.00087       -0.23958       -0.36458        0.00000
 BRILLOUIN|   584           0.00087       -0.23958       -0.34375        0.00000
 BRILLOUIN|   585           0.00087       -0.23958       -0.32292        0.00000
 BRILLOUIN|   586           0.00087       -0.23958       -0.30208        0.00000
 BRILLOUIN|   587           0.00087       -0.23958       -0.28125        0.00000
 BRILLOUIN|   588           0.00087       -0.23958       -0.26042        0.00000
 BRILLOUIN|   589           0.00087       -0.23958       -0.23958        0.00000
 BRILLOUIN|   590           0.00087       -0.23958       -0.21875        0.00000
 BRILLOUIN|   591           0.00087       -0.23958       -0.19792        0.00000
 BRILLOUIN|   592           0.00087       -0.23958       -0.17708        0.00000
 BRILLOUIN|   593           0.00087       -0.23958       -0.15625        0.00000
 BRILLOUIN|   594           0.00087       -0.23958       -0.13542        0.00000
 BRILLOUIN|   595           0.00087       -0.23958       -0.11458        0.00000
 BRILLOUIN|   596           0.00087       -0.23958       -0.09375        0.00000
 BRILLOUIN|   597           0.00087       -0.23958       -0.07292        0.00000
 BRILLOUIN|   598           0.00087       -0.23958       -0.05208        0.00000
 BRILLOUIN|   599           0.00087       -0.23958       -0.03125        0.00000
 BRILLOUIN|   600           0.00087       -0.23958       -0.01042        0.00000
 BRILLOUIN|   601           0.00087       -0.23958        0.01042        0.00000
 BRILLOUIN|   602           0.00087       -0.23958        0.03125        0.00000
 BRILLOUIN|   603           0.00087       -0.23958        0.05208        0.00000
 BRILLOUIN|   604           0.00087       -0.23958        0.07292        0.00000
 BRILLOUIN|   605           0.00087       -0.23958        0.09375        0.00000
 BRILLOUIN|   606           0.00087       -0.23958        0.11458        0.00000
 BRILLOUIN|   607           0.00087       -0.23958        0.13542        0.00000
 BRILLOUIN|   608           0.00087       -0.23958        0.15625        0.00000
 BRILLOUIN|   609           0.00087       -0.23958        0.17708        0.00000
 BRILLOUIN|   610           0.00087       -0.23958        0.19792        0.00000
 BRILLOUIN|   611           0.00087       -0.23958        0.21875        0.00000
 BRILLOUIN|   612           0.00087       -0.23958        0.23958        0.00000
 BRILLOUIN|   613           0.00087       -0.23958        0.26042        0.00000
 BRILLOUIN|   614           0.00087       -0.23958        0.28125        0.00000
 BRILLOUIN|   615           0.00087       -0.23958        0.30208        0.00000
 BRILLOUIN|   616           0.00087       -0.23958        0.32292        0.00000
 BRILLOUIN|   617           0.00087       -0.23958        0.34375        0.00000
 BRILLOUIN|   618           0.00087       -0.23958        0.36458        0.00000
 BRILLOUIN|   619           0.00087       -0.23958        0.38542        0.00000
 BRILLOUIN|   620           0.00087       -0.23958        0.40625        0.00000
 BRILLOUIN|   621           0.00087       -0.23958        0.42708        0.00000
 BRILLOUIN|   622           0.00087       -0.23958        0.44792        0.00000
 BRILLOUIN|   623           0.00087       -0.23958        0.46875        0.00000
 BRILLOUIN|   624           0.00087       -0.23958        0.48958        0.00000
 BRILLOUIN|   625           0.00087       -0.21875       -0.48958        0.00000
 BRILLOUIN|   626           0.00087       -0.21875       -0.46875        0.00000
 BRILLOUIN|   627           0.00087       -0.21875       -0.44792        0.00000
 BRILLOUIN|   628           0.00087       -0.21875       -0.42708        0.00000
 BRILLOUIN|   629           0.00087       -0.21875       -0.40625        0.00000
 BRILLOUIN|   630           0.00087       -0.21875       -0.38542        0.00000
 BRILLOUIN|   631           0.00087       -0.21875       -0.36458        0.00000
 BRILLOUIN|   632           0.00087       -0.21875       -0.34375        0.00000
 BRILLOUIN|   633           0.00087       -0.21875       -0.32292        0.00000
 BRILLOUIN|   634           0.00087       -0.21875       -0.30208        0.00000
 BRILLOUIN|   635           0.00087       -0.21875       -0.28125        0.00000
 BRILLOUIN|   636           0.00087       -0.21875       -0.26042        0.00000
 BRILLOUIN|   637           0.00087       -0.21875       -0.23958        0.00000
 BRILLOUIN|   638           0.00087       -0.21875       -0.21875        0.00000
 BRILLOUIN|   639           0.00087       -0.21875       -0.19792        0.00000
 BRILLOUIN|   640           0.00087       -0.21875       -0.17708        0.00000
 BRILLOUIN|   641           0.00087       -0.21875       -0.15625        0.00000
 BRILLOUIN|   642           0.00087       -0.21875       -0.13542        0.00000
 BRILLOUIN|   643           0.00087       -0.21875       -0.11458        0.00000
 BRILLOUIN|   644           0.00087       -0.21875       -0.09375        0.00000
 BRILLOUIN|   645           0.00087       -0.21875       -0.07292        0.00000
 BRILLOUIN|   646           0.00087       -0.21875       -0.05208        0.00000
 BRILLOUIN|   647           0.00087       -0.21875       -0.03125        0.00000
 BRILLOUIN|   648           0.00087       -0.21875       -0.01042        0.00000
 BRILLOUIN|   649           0.00087       -0.21875        0.01042        0.00000
 BRILLOUIN|   650           0.00087       -0.21875        0.03125        0.00000
 BRILLOUIN|   651           0.00087       -0.21875        0.05208        0.00000
 BRILLOUIN|   652           0.00087       -0.21875        0.07292        0.00000
 BRILLOUIN|   653           0.00087       -0.21875        0.09375        0.00000
 BRILLOUIN|   654           0.00087       -0.21875        0.11458        0.00000
 BRILLOUIN|   655           0.00087       -0.21875        0.13542        0.00000
 BRILLOUIN|   656           0.00087       -0.21875        0.15625        0.00000
 BRILLOUIN|   657           0.00087       -0.21875        0.17708        0.00000
 BRILLOUIN|   658           0.00087       -0.21875        0.19792        0.00000
 BRILLOUIN|   659           0.00087       -0.21875        0.21875        0.00000
 BRILLOUIN|   660           0.00087       -0.21875        0.23958        0.00000
 BRILLOUIN|   661           0.00087       -0.21875        0.26042        0.00000
 BRILLOUIN|   662           0.00087       -0.21875        0.28125        0.00000
 BRILLOUIN|   663           0.00087       -0.21875        0.30208        0.00000
 BRILLOUIN|   664           0.00087       -0.21875        0.32292        0.00000
 BRILLOUIN|   665           0.00087       -0.21875        0.34375        0.00000
 BRILLOUIN|   666           0.00087       -0.21875        0.36458        0.00000
 BRILLOUIN|   667           0.00087       -0.21875        0.38542        0.00000
 BRILLOUIN|   668           0.00087       -0.21875        0.40625        0.00000
 BRILLOUIN|   669           0.00087       -0.21875        0.42708        0.00000
 BRILLOUIN|   670           0.00087       -0.21875        0.44792        0.00000
 BRILLOUIN|   671           0.00087       -0.21875        0.46875        0.00000
 BRILLOUIN|   672           0.00087       -0.21875        0.48958        0.00000
 BRILLOUIN|   673           0.00087       -0.19792       -0.48958        0.00000
 BRILLOUIN|   674           0.00087       -0.19792       -0.46875        0.00000
 BRILLOUIN|   675           0.00087       -0.19792       -0.44792        0.00000
 BRILLOUIN|   676           0.00087       -0.19792       -0.42708        0.00000
 BRILLOUIN|   677           0.00087       -0.19792       -0.40625        0.00000
 BRILLOUIN|   678           0.00087       -0.19792       -0.38542        0.00000
 BRILLOUIN|   679           0.00087       -0.19792       -0.36458        0.00000
 BRILLOUIN|   680           0.00087       -0.19792       -0.34375        0.00000
 BRILLOUIN|   681           0.00087       -0.19792       -0.32292        0.00000
 BRILLOUIN|   682           0.00087       -0.19792       -0.30208        0.00000
 BRILLOUIN|   683           0.00087       -0.19792       -0.28125        0.00000
 BRILLOUIN|   684           0.00087       -0.19792       -0.26042        0.00000
 BRILLOUIN|   685           0.00087       -0.19792       -0.23958        0.00000
 BRILLOUIN|   686           0.00087       -0.19792       -0.21875        0.00000
 BRILLOUIN|   687           0.00087       -0.19792       -0.19792        0.00000
 BRILLOUIN|   688           0.00087       -0.19792       -0.17708        0.00000
 BRILLOUIN|   689           0.00087       -0.19792       -0.15625        0.00000
 BRILLOUIN|   690           0.00087       -0.19792       -0.13542        0.00000
 BRILLOUIN|   691           0.00087       -0.19792       -0.11458        0.00000
 BRILLOUIN|   692           0.00087       -0.19792       -0.09375        0.00000
 BRILLOUIN|   693           0.00087       -0.19792       -0.07292        0.00000
 BRILLOUIN|   694           0.00087       -0.19792       -0.05208        0.00000
 BRILLOUIN|   695           0.00087       -0.19792       -0.03125        0.00000
 BRILLOUIN|   696           0.00087       -0.19792       -0.01042        0.00000
 BRILLOUIN|   697           0.00087       -0.19792        0.01042        0.00000
 BRILLOUIN|   698           0.00087       -0.19792        0.03125        0.00000
 BRILLOUIN|   699           0.00087       -0.19792        0.05208        0.00000
 BRILLOUIN|   700           0.00087       -0.19792        0.07292        0.00000
 BRILLOUIN|   701           0.00087       -0.19792        0.09375        0.00000
 BRILLOUIN|   702           0.00087       -0.19792        0.11458        0.00000
 BRILLOUIN|   703           0.00087       -0.19792        0.13542        0.00000
 BRILLOUIN|   704           0.00087       -0.19792        0.15625        0.00000
 BRILLOUIN|   705           0.00087       -0.19792        0.17708        0.00000
 BRILLOUIN|   706           0.00087       -0.19792        0.19792        0.00000
 BRILLOUIN|   707           0.00087       -0.19792        0.21875        0.00000
 BRILLOUIN|   708           0.00087       -0.19792        0.23958        0.00000
 BRILLOUIN|   709           0.00087       -0.19792        0.26042        0.00000
 BRILLOUIN|   710           0.00087       -0.19792        0.28125        0.00000
 BRILLOUIN|   711           0.00087       -0.19792        0.30208        0.00000
 BRILLOUIN|   712           0.00087       -0.19792        0.32292        0.00000
 BRILLOUIN|   713           0.00087       -0.19792        0.34375        0.00000
 BRILLOUIN|   714           0.00087       -0.19792        0.36458        0.00000
 BRILLOUIN|   715           0.00087       -0.19792        0.38542        0.00000
 BRILLOUIN|   716           0.00087       -0.19792        0.40625        0.00000
 BRILLOUIN|   717           0.00087       -0.19792        0.42708        0.00000
 BRILLOUIN|   718           0.00087       -0.19792        0.44792        0.00000
 BRILLOUIN|   719           0.00087       -0.19792        0.46875        0.00000
 BRILLOUIN|   720           0.00087       -0.19792        0.48958        0.00000
 BRILLOUIN|   721           0.00087       -0.17708       -0.48958        0.00000
 BRILLOUIN|   722           0.00087       -0.17708       -0.46875        0.00000
 BRILLOUIN|   723           0.00087       -0.17708       -0.44792        0.00000
 BRILLOUIN|   724           0.00087       -0.17708       -0.42708        0.00000
 BRILLOUIN|   725           0.00087       -0.17708       -0.40625        0.00000
 BRILLOUIN|   726           0.00087       -0.17708       -0.38542        0.00000
 BRILLOUIN|   727           0.00087       -0.17708       -0.36458        0.00000
 BRILLOUIN|   728           0.00087       -0.17708       -0.34375        0.00000
 BRILLOUIN|   729           0.00087       -0.17708       -0.32292        0.00000
 BRILLOUIN|   730           0.00087       -0.17708       -0.30208        0.00000
 BRILLOUIN|   731           0.00087       -0.17708       -0.28125        0.00000
 BRILLOUIN|   732           0.00087       -0.17708       -0.26042        0.00000
 BRILLOUIN|   733           0.00087       -0.17708       -0.23958        0.00000
 BRILLOUIN|   734           0.00087       -0.17708       -0.21875        0.00000
 BRILLOUIN|   735           0.00087       -0.17708       -0.19792        0.00000
 BRILLOUIN|   736           0.00087       -0.17708       -0.17708        0.00000
 BRILLOUIN|   737           0.00087       -0.17708       -0.15625        0.00000
 BRILLOUIN|   738           0.00087       -0.17708       -0.13542        0.00000
 BRILLOUIN|   739           0.00087       -0.17708       -0.11458        0.00000
 BRILLOUIN|   740           0.00087       -0.17708       -0.09375        0.00000
 BRILLOUIN|   741           0.00087       -0.17708       -0.07292        0.00000
 BRILLOUIN|   742           0.00087       -0.17708       -0.05208        0.00000
 BRILLOUIN|   743           0.00087       -0.17708       -0.03125        0.00000
 BRILLOUIN|   744           0.00087       -0.17708       -0.01042        0.00000
 BRILLOUIN|   745           0.00087       -0.17708        0.01042        0.00000
 BRILLOUIN|   746           0.00087       -0.17708        0.03125        0.00000
 BRILLOUIN|   747           0.00087       -0.17708        0.05208        0.00000
 BRILLOUIN|   748           0.00087       -0.17708        0.07292        0.00000
 BRILLOUIN|   749           0.00087       -0.17708        0.09375        0.00000
 BRILLOUIN|   750           0.00087       -0.17708        0.11458        0.00000
 BRILLOUIN|   751           0.00087       -0.17708        0.13542        0.00000
 BRILLOUIN|   752           0.00087       -0.17708        0.15625        0.00000
 BRILLOUIN|   753           0.00087       -0.17708        0.17708        0.00000
 BRILLOUIN|   754           0.00087       -0.17708        0.19792        0.00000
 BRILLOUIN|   755           0.00087       -0.17708        0.21875        0.00000
 BRILLOUIN|   756           0.00087       -0.17708        0.23958        0.00000
 BRILLOUIN|   757           0.00087       -0.17708        0.26042        0.00000
 BRILLOUIN|   758           0.00087       -0.17708        0.28125        0.00000
 BRILLOUIN|   759           0.00087       -0.17708        0.30208        0.00000
 BRILLOUIN|   760           0.00087       -0.17708        0.32292        0.00000
 BRILLOUIN|   761           0.00087       -0.17708        0.34375        0.00000
 BRILLOUIN|   762           0.00087       -0.17708        0.36458        0.00000
 BRILLOUIN|   763           0.00087       -0.17708        0.38542        0.00000
 BRILLOUIN|   764           0.00087       -0.17708        0.40625        0.00000
 BRILLOUIN|   765           0.00087       -0.17708        0.42708        0.00000
 BRILLOUIN|   766           0.00087       -0.17708        0.44792        0.00000
 BRILLOUIN|   767           0.00087       -0.17708        0.46875        0.00000
 BRILLOUIN|   768           0.00087       -0.17708        0.48958        0.00000
 BRILLOUIN|   769           0.00087       -0.15625       -0.48958        0.00000
 BRILLOUIN|   770           0.00087       -0.15625       -0.46875        0.00000
 BRILLOUIN|   771           0.00087       -0.15625       -0.44792        0.00000
 BRILLOUIN|   772           0.00087       -0.15625       -0.42708        0.00000
 BRILLOUIN|   773           0.00087       -0.15625       -0.40625        0.00000
 BRILLOUIN|   774           0.00087       -0.15625       -0.38542        0.00000
 BRILLOUIN|   775           0.00087       -0.15625       -0.36458        0.00000
 BRILLOUIN|   776           0.00087       -0.15625       -0.34375        0.00000
 BRILLOUIN|   777           0.00087       -0.15625       -0.32292        0.00000
 BRILLOUIN|   778           0.00087       -0.15625       -0.30208        0.00000
 BRILLOUIN|   779           0.00087       -0.15625       -0.28125        0.00000
 BRILLOUIN|   780           0.00087       -0.15625       -0.26042        0.00000
 BRILLOUIN|   781           0.00087       -0.15625       -0.23958        0.00000
 BRILLOUIN|   782           0.00087       -0.15625       -0.21875        0.00000
 BRILLOUIN|   783           0.00087       -0.15625       -0.19792        0.00000
 BRILLOUIN|   784           0.00087       -0.15625       -0.17708        0.00000
 BRILLOUIN|   785           0.00087       -0.15625       -0.15625        0.00000
 BRILLOUIN|   786           0.00087       -0.15625       -0.13542        0.00000
 BRILLOUIN|   787           0.00087       -0.15625       -0.11458        0.00000
 BRILLOUIN|   788           0.00087       -0.15625       -0.09375        0.00000
 BRILLOUIN|   789           0.00087       -0.15625       -0.07292        0.00000
 BRILLOUIN|   790           0.00087       -0.15625       -0.05208        0.00000
 BRILLOUIN|   791           0.00087       -0.15625       -0.03125        0.00000
 BRILLOUIN|   792           0.00087       -0.15625       -0.01042        0.00000
 BRILLOUIN|   793           0.00087       -0.15625        0.01042        0.00000
 BRILLOUIN|   794           0.00087       -0.15625        0.03125        0.00000
 BRILLOUIN|   795           0.00087       -0.15625        0.05208        0.00000
 BRILLOUIN|   796           0.00087       -0.15625        0.07292        0.00000
 BRILLOUIN|   797           0.00087       -0.15625        0.09375        0.00000
 BRILLOUIN|   798           0.00087       -0.15625        0.11458        0.00000
 BRILLOUIN|   799           0.00087       -0.15625        0.13542        0.00000
 BRILLOUIN|   800           0.00087       -0.15625        0.15625        0.00000
 BRILLOUIN|   801           0.00087       -0.15625        0.17708        0.00000
 BRILLOUIN|   802           0.00087       -0.15625        0.19792        0.00000
 BRILLOUIN|   803           0.00087       -0.15625        0.21875        0.00000
 BRILLOUIN|   804           0.00087       -0.15625        0.23958        0.00000
 BRILLOUIN|   805           0.00087       -0.15625        0.26042        0.00000
 BRILLOUIN|   806           0.00087       -0.15625        0.28125        0.00000
 BRILLOUIN|   807           0.00087       -0.15625        0.30208        0.00000
 BRILLOUIN|   808           0.00087       -0.15625        0.32292        0.00000
 BRILLOUIN|   809           0.00087       -0.15625        0.34375        0.00000
 BRILLOUIN|   810           0.00087       -0.15625        0.36458        0.00000
 BRILLOUIN|   811           0.00087       -0.15625        0.38542        0.00000
 BRILLOUIN|   812           0.00087       -0.15625        0.40625        0.00000
 BRILLOUIN|   813           0.00087       -0.15625        0.42708        0.00000
 BRILLOUIN|   814           0.00087       -0.15625        0.44792        0.00000
 BRILLOUIN|   815           0.00087       -0.15625        0.46875        0.00000
 BRILLOUIN|   816           0.00087       -0.15625        0.48958        0.00000
 BRILLOUIN|   817           0.00087       -0.13542       -0.48958        0.00000
 BRILLOUIN|   818           0.00087       -0.13542       -0.46875        0.00000
 BRILLOUIN|   819           0.00087       -0.13542       -0.44792        0.00000
 BRILLOUIN|   820           0.00087       -0.13542       -0.42708        0.00000
 BRILLOUIN|   821           0.00087       -0.13542       -0.40625        0.00000
 BRILLOUIN|   822           0.00087       -0.13542       -0.38542        0.00000
 BRILLOUIN|   823           0.00087       -0.13542       -0.36458        0.00000
 BRILLOUIN|   824           0.00087       -0.13542       -0.34375        0.00000
 BRILLOUIN|   825           0.00087       -0.13542       -0.32292        0.00000
 BRILLOUIN|   826           0.00087       -0.13542       -0.30208        0.00000
 BRILLOUIN|   827           0.00087       -0.13542       -0.28125        0.00000
 BRILLOUIN|   828           0.00087       -0.13542       -0.26042        0.00000
 BRILLOUIN|   829           0.00087       -0.13542       -0.23958        0.00000
 BRILLOUIN|   830           0.00087       -0.13542       -0.21875        0.00000
 BRILLOUIN|   831           0.00087       -0.13542       -0.19792        0.00000
 BRILLOUIN|   832           0.00087       -0.13542       -0.17708        0.00000
 BRILLOUIN|   833           0.00087       -0.13542       -0.15625        0.00000
 BRILLOUIN|   834           0.00087       -0.13542       -0.13542        0.00000
 BRILLOUIN|   835           0.00087       -0.13542       -0.11458        0.00000
 BRILLOUIN|   836           0.00087       -0.13542       -0.09375        0.00000
 BRILLOUIN|   837           0.00087       -0.13542       -0.07292        0.00000
 BRILLOUIN|   838           0.00087       -0.13542       -0.05208        0.00000
 BRILLOUIN|   839           0.00087       -0.13542       -0.03125        0.00000
 BRILLOUIN|   840           0.00087       -0.13542       -0.01042        0.00000
 BRILLOUIN|   841           0.00087       -0.13542        0.01042        0.00000
 BRILLOUIN|   842           0.00087       -0.13542        0.03125        0.00000
 BRILLOUIN|   843           0.00087       -0.13542        0.05208        0.00000
 BRILLOUIN|   844           0.00087       -0.13542        0.07292        0.00000
 BRILLOUIN|   845           0.00087       -0.13542        0.09375        0.00000
 BRILLOUIN|   846           0.00087       -0.13542        0.11458        0.00000
 BRILLOUIN|   847           0.00087       -0.13542        0.13542        0.00000
 BRILLOUIN|   848           0.00087       -0.13542        0.15625        0.00000
 BRILLOUIN|   849           0.00087       -0.13542        0.17708        0.00000
 BRILLOUIN|   850           0.00087       -0.13542        0.19792        0.00000
 BRILLOUIN|   851           0.00087       -0.13542        0.21875        0.00000
 BRILLOUIN|   852           0.00087       -0.13542        0.23958        0.00000
 BRILLOUIN|   853           0.00087       -0.13542        0.26042        0.00000
 BRILLOUIN|   854           0.00087       -0.13542        0.28125        0.00000
 BRILLOUIN|   855           0.00087       -0.13542        0.30208        0.00000
 BRILLOUIN|   856           0.00087       -0.13542        0.32292        0.00000
 BRILLOUIN|   857           0.00087       -0.13542        0.34375        0.00000
 BRILLOUIN|   858           0.00087       -0.13542        0.36458        0.00000
 BRILLOUIN|   859           0.00087       -0.13542        0.38542        0.00000
 BRILLOUIN|   860           0.00087       -0.13542        0.40625        0.00000
 BRILLOUIN|   861           0.00087       -0.13542        0.42708        0.00000
 BRILLOUIN|   862           0.00087       -0.13542        0.44792        0.00000
 BRILLOUIN|   863           0.00087       -0.13542        0.46875        0.00000
 BRILLOUIN|   864           0.00087       -0.13542        0.48958        0.00000
 BRILLOUIN|   865           0.00087       -0.11458       -0.48958        0.00000
 BRILLOUIN|   866           0.00087       -0.11458       -0.46875        0.00000
 BRILLOUIN|   867           0.00087       -0.11458       -0.44792        0.00000
 BRILLOUIN|   868           0.00087       -0.11458       -0.42708        0.00000
 BRILLOUIN|   869           0.00087       -0.11458       -0.40625        0.00000
 BRILLOUIN|   870           0.00087       -0.11458       -0.38542        0.00000
 BRILLOUIN|   871           0.00087       -0.11458       -0.36458        0.00000
 BRILLOUIN|   872           0.00087       -0.11458       -0.34375        0.00000
 BRILLOUIN|   873           0.00087       -0.11458       -0.32292        0.00000
 BRILLOUIN|   874           0.00087       -0.11458       -0.30208        0.00000
 BRILLOUIN|   875           0.00087       -0.11458       -0.28125        0.00000
 BRILLOUIN|   876           0.00087       -0.11458       -0.26042        0.00000
 BRILLOUIN|   877           0.00087       -0.11458       -0.23958        0.00000
 BRILLOUIN|   878           0.00087       -0.11458       -0.21875        0.00000
 BRILLOUIN|   879           0.00087       -0.11458       -0.19792        0.00000
 BRILLOUIN|   880           0.00087       -0.11458       -0.17708        0.00000
 BRILLOUIN|   881           0.00087       -0.11458       -0.15625        0.00000
 BRILLOUIN|   882           0.00087       -0.11458       -0.13542        0.00000
 BRILLOUIN|   883           0.00087       -0.11458       -0.11458        0.00000
 BRILLOUIN|   884           0.00087       -0.11458       -0.09375        0.00000
 BRILLOUIN|   885           0.00087       -0.11458       -0.07292        0.00000
 BRILLOUIN|   886           0.00087       -0.11458       -0.05208        0.00000
 BRILLOUIN|   887           0.00087       -0.11458       -0.03125        0.00000
 BRILLOUIN|   888           0.00087       -0.11458       -0.01042        0.00000
 BRILLOUIN|   889           0.00087       -0.11458        0.01042        0.00000
 BRILLOUIN|   890           0.00087       -0.11458        0.03125        0.00000
 BRILLOUIN|   891           0.00087       -0.11458        0.05208        0.00000
 BRILLOUIN|   892           0.00087       -0.11458        0.07292        0.00000
 BRILLOUIN|   893           0.00087       -0.11458        0.09375        0.00000
 BRILLOUIN|   894           0.00087       -0.11458        0.11458        0.00000
 BRILLOUIN|   895           0.00087       -0.11458        0.13542        0.00000
 BRILLOUIN|   896           0.00087       -0.11458        0.15625        0.00000
 BRILLOUIN|   897           0.00087       -0.11458        0.17708        0.00000
 BRILLOUIN|   898           0.00087       -0.11458        0.19792        0.00000
 BRILLOUIN|   899           0.00087       -0.11458        0.21875        0.00000
 BRILLOUIN|   900           0.00087       -0.11458        0.23958        0.00000
 BRILLOUIN|   901           0.00087       -0.11458        0.26042        0.00000
 BRILLOUIN|   902           0.00087       -0.11458        0.28125        0.00000
 BRILLOUIN|   903           0.00087       -0.11458        0.30208        0.00000
 BRILLOUIN|   904           0.00087       -0.11458        0.32292        0.00000
 BRILLOUIN|   905           0.00087       -0.11458        0.34375        0.00000
 BRILLOUIN|   906           0.00087       -0.11458        0.36458        0.00000
 BRILLOUIN|   907           0.00087       -0.11458        0.38542        0.00000
 BRILLOUIN|   908           0.00087       -0.11458        0.40625        0.00000
 BRILLOUIN|   909           0.00087       -0.11458        0.42708        0.00000
 BRILLOUIN|   910           0.00087       -0.11458        0.44792        0.00000
 BRILLOUIN|   911           0.00087       -0.11458        0.46875        0.00000
 BRILLOUIN|   912           0.00087       -0.11458        0.48958        0.00000
 BRILLOUIN|   913           0.00087       -0.09375       -0.48958        0.00000
 BRILLOUIN|   914           0.00087       -0.09375       -0.46875        0.00000
 BRILLOUIN|   915           0.00087       -0.09375       -0.44792        0.00000
 BRILLOUIN|   916           0.00087       -0.09375       -0.42708        0.00000
 BRILLOUIN|   917           0.00087       -0.09375       -0.40625        0.00000
 BRILLOUIN|   918           0.00087       -0.09375       -0.38542        0.00000
 BRILLOUIN|   919           0.00087       -0.09375       -0.36458        0.00000
 BRILLOUIN|   920           0.00087       -0.09375       -0.34375        0.00000
 BRILLOUIN|   921           0.00087       -0.09375       -0.32292        0.00000
 BRILLOUIN|   922           0.00087       -0.09375       -0.30208        0.00000
 BRILLOUIN|   923           0.00087       -0.09375       -0.28125        0.00000
 BRILLOUIN|   924           0.00087       -0.09375       -0.26042        0.00000
 BRILLOUIN|   925           0.00087       -0.09375       -0.23958        0.00000
 BRILLOUIN|   926           0.00087       -0.09375       -0.21875        0.00000
 BRILLOUIN|   927           0.00087       -0.09375       -0.19792        0.00000
 BRILLOUIN|   928           0.00087       -0.09375       -0.17708        0.00000
 BRILLOUIN|   929           0.00087       -0.09375       -0.15625        0.00000
 BRILLOUIN|   930           0.00087       -0.09375       -0.13542        0.00000
 BRILLOUIN|   931           0.00087       -0.09375       -0.11458        0.00000
 BRILLOUIN|   932           0.00087       -0.09375       -0.09375        0.00000
 BRILLOUIN|   933           0.00087       -0.09375       -0.07292        0.00000
 BRILLOUIN|   934           0.00087       -0.09375       -0.05208        0.00000
 BRILLOUIN|   935           0.00087       -0.09375       -0.03125        0.00000
 BRILLOUIN|   936           0.00087       -0.09375       -0.01042        0.00000
 BRILLOUIN|   937           0.00087       -0.09375        0.01042        0.00000
 BRILLOUIN|   938           0.00087       -0.09375        0.03125        0.00000
 BRILLOUIN|   939           0.00087       -0.09375        0.05208        0.00000
 BRILLOUIN|   940           0.00087       -0.09375        0.07292        0.00000
 BRILLOUIN|   941           0.00087       -0.09375        0.09375        0.00000
 BRILLOUIN|   942           0.00087       -0.09375        0.11458        0.00000
 BRILLOUIN|   943           0.00087       -0.09375        0.13542        0.00000
 BRILLOUIN|   944           0.00087       -0.09375        0.15625        0.00000
 BRILLOUIN|   945           0.00087       -0.09375        0.17708        0.00000
 BRILLOUIN|   946           0.00087       -0.09375        0.19792        0.00000
 BRILLOUIN|   947           0.00087       -0.09375        0.21875        0.00000
 BRILLOUIN|   948           0.00087       -0.09375        0.23958        0.00000
 BRILLOUIN|   949           0.00087       -0.09375        0.26042        0.00000
 BRILLOUIN|   950           0.00087       -0.09375        0.28125        0.00000
 BRILLOUIN|   951           0.00087       -0.09375        0.30208        0.00000
 BRILLOUIN|   952           0.00087       -0.09375        0.32292        0.00000
 BRILLOUIN|   953           0.00087       -0.09375        0.34375        0.00000
 BRILLOUIN|   954           0.00087       -0.09375        0.36458        0.00000
 BRILLOUIN|   955           0.00087       -0.09375        0.38542        0.00000
 BRILLOUIN|   956           0.00087       -0.09375        0.40625        0.00000
 BRILLOUIN|   957           0.00087       -0.09375        0.42708        0.00000
 BRILLOUIN|   958           0.00087       -0.09375        0.44792        0.00000
 BRILLOUIN|   959           0.00087       -0.09375        0.46875        0.00000
 BRILLOUIN|   960           0.00087       -0.09375        0.48958        0.00000
 BRILLOUIN|   961           0.00087       -0.07292       -0.48958        0.00000
 BRILLOUIN|   962           0.00087       -0.07292       -0.46875        0.00000
 BRILLOUIN|   963           0.00087       -0.07292       -0.44792        0.00000
 BRILLOUIN|   964           0.00087       -0.07292       -0.42708        0.00000
 BRILLOUIN|   965           0.00087       -0.07292       -0.40625        0.00000
 BRILLOUIN|   966           0.00087       -0.07292       -0.38542        0.00000
 BRILLOUIN|   967           0.00087       -0.07292       -0.36458        0.00000
 BRILLOUIN|   968           0.00087       -0.07292       -0.34375        0.00000
 BRILLOUIN|   969           0.00087       -0.07292       -0.32292        0.00000
 BRILLOUIN|   970           0.00087       -0.07292       -0.30208        0.00000
 BRILLOUIN|   971           0.00087       -0.07292       -0.28125        0.00000
 BRILLOUIN|   972           0.00087       -0.07292       -0.26042        0.00000
 BRILLOUIN|   973           0.00087       -0.07292       -0.23958        0.00000
 BRILLOUIN|   974           0.00087       -0.07292       -0.21875        0.00000
 BRILLOUIN|   975           0.00087       -0.07292       -0.19792        0.00000
 BRILLOUIN|   976           0.00087       -0.07292       -0.17708        0.00000
 BRILLOUIN|   977           0.00087       -0.07292       -0.15625        0.00000
 BRILLOUIN|   978           0.00087       -0.07292       -0.13542        0.00000
 BRILLOUIN|   979           0.00087       -0.07292       -0.11458        0.00000
 BRILLOUIN|   980           0.00087       -0.07292       -0.09375        0.00000
 BRILLOUIN|   981           0.00087       -0.07292       -0.07292        0.00000
 BRILLOUIN|   982           0.00087       -0.07292       -0.05208        0.00000
 BRILLOUIN|   983           0.00087       -0.07292       -0.03125        0.00000
 BRILLOUIN|   984           0.00087       -0.07292       -0.01042        0.00000
 BRILLOUIN|   985           0.00087       -0.07292        0.01042        0.00000
 BRILLOUIN|   986           0.00087       -0.07292        0.03125        0.00000
 BRILLOUIN|   987           0.00087       -0.07292        0.05208        0.00000
 BRILLOUIN|   988           0.00087       -0.07292        0.07292        0.00000
 BRILLOUIN|   989           0.00087       -0.07292        0.09375        0.00000
 BRILLOUIN|   990           0.00087       -0.07292        0.11458        0.00000
 BRILLOUIN|   991           0.00087       -0.07292        0.13542        0.00000
 BRILLOUIN|   992           0.00087       -0.07292        0.15625        0.00000
 BRILLOUIN|   993           0.00087       -0.07292        0.17708        0.00000
 BRILLOUIN|   994           0.00087       -0.07292        0.19792        0.00000
 BRILLOUIN|   995           0.00087       -0.07292        0.21875        0.00000
 BRILLOUIN|   996           0.00087       -0.07292        0.23958        0.00000
 BRILLOUIN|   997           0.00087       -0.07292        0.26042        0.00000
 BRILLOUIN|   998           0.00087       -0.07292        0.28125        0.00000
 BRILLOUIN|   999           0.00087       -0.07292        0.30208        0.00000
 BRILLOUIN|  1000           0.00087       -0.07292        0.32292        0.00000
 BRILLOUIN|  1001           0.00087       -0.07292        0.34375        0.00000
 BRILLOUIN|  1002           0.00087       -0.07292        0.36458        0.00000
 BRILLOUIN|  1003           0.00087       -0.07292        0.38542        0.00000
 BRILLOUIN|  1004           0.00087       -0.07292        0.40625        0.00000
 BRILLOUIN|  1005           0.00087       -0.07292        0.42708        0.00000
 BRILLOUIN|  1006           0.00087       -0.07292        0.44792        0.00000
 BRILLOUIN|  1007           0.00087       -0.07292        0.46875        0.00000
 BRILLOUIN|  1008           0.00087       -0.07292        0.48958        0.00000
 BRILLOUIN|  1009           0.00087       -0.05208       -0.48958        0.00000
 BRILLOUIN|  1010           0.00087       -0.05208       -0.46875        0.00000
 BRILLOUIN|  1011           0.00087       -0.05208       -0.44792        0.00000
 BRILLOUIN|  1012           0.00087       -0.05208       -0.42708        0.00000
 BRILLOUIN|  1013           0.00087       -0.05208       -0.40625        0.00000
 BRILLOUIN|  1014           0.00087       -0.05208       -0.38542        0.00000
 BRILLOUIN|  1015           0.00087       -0.05208       -0.36458        0.00000
 BRILLOUIN|  1016           0.00087       -0.05208       -0.34375        0.00000
 BRILLOUIN|  1017           0.00087       -0.05208       -0.32292        0.00000
 BRILLOUIN|  1018           0.00087       -0.05208       -0.30208        0.00000
 BRILLOUIN|  1019           0.00087       -0.05208       -0.28125        0.00000
 BRILLOUIN|  1020           0.00087       -0.05208       -0.26042        0.00000
 BRILLOUIN|  1021           0.00087       -0.05208       -0.23958        0.00000
 BRILLOUIN|  1022           0.00087       -0.05208       -0.21875        0.00000
 BRILLOUIN|  1023           0.00087       -0.05208       -0.19792        0.00000
 BRILLOUIN|  1024           0.00087       -0.05208       -0.17708        0.00000
 BRILLOUIN|  1025           0.00087       -0.05208       -0.15625        0.00000
 BRILLOUIN|  1026           0.00087       -0.05208       -0.13542        0.00000
 BRILLOUIN|  1027           0.00087       -0.05208       -0.11458        0.00000
 BRILLOUIN|  1028           0.00087       -0.05208       -0.09375        0.00000
 BRILLOUIN|  1029           0.00087       -0.05208       -0.07292        0.00000
 BRILLOUIN|  1030           0.00087       -0.05208       -0.05208        0.00000
 BRILLOUIN|  1031           0.00087       -0.05208       -0.03125        0.00000
 BRILLOUIN|  1032           0.00087       -0.05208       -0.01042        0.00000
 BRILLOUIN|  1033           0.00087       -0.05208        0.01042        0.00000
 BRILLOUIN|  1034           0.00087       -0.05208        0.03125        0.00000
 BRILLOUIN|  1035           0.00087       -0.05208        0.05208        0.00000
 BRILLOUIN|  1036           0.00087       -0.05208        0.07292        0.00000
 BRILLOUIN|  1037           0.00087       -0.05208        0.09375        0.00000
 BRILLOUIN|  1038           0.00087       -0.05208        0.11458        0.00000
 BRILLOUIN|  1039           0.00087       -0.05208        0.13542        0.00000
 BRILLOUIN|  1040           0.00087       -0.05208        0.15625        0.00000
 BRILLOUIN|  1041           0.00087       -0.05208        0.17708        0.00000
 BRILLOUIN|  1042           0.00087       -0.05208        0.19792        0.00000
 BRILLOUIN|  1043           0.00087       -0.05208        0.21875        0.00000
 BRILLOUIN|  1044           0.00087       -0.05208        0.23958        0.00000
 BRILLOUIN|  1045           0.00087       -0.05208        0.26042        0.00000
 BRILLOUIN|  1046           0.00087       -0.05208        0.28125        0.00000
 BRILLOUIN|  1047           0.00087       -0.05208        0.30208        0.00000
 BRILLOUIN|  1048           0.00087       -0.05208        0.32292        0.00000
 BRILLOUIN|  1049           0.00087       -0.05208        0.34375        0.00000
 BRILLOUIN|  1050           0.00087       -0.05208        0.36458        0.00000
 BRILLOUIN|  1051           0.00087       -0.05208        0.38542        0.00000
 BRILLOUIN|  1052           0.00087       -0.05208        0.40625        0.00000
 BRILLOUIN|  1053           0.00087       -0.05208        0.42708        0.00000
 BRILLOUIN|  1054           0.00087       -0.05208        0.44792        0.00000
 BRILLOUIN|  1055           0.00087       -0.05208        0.46875        0.00000
 BRILLOUIN|  1056           0.00087       -0.05208        0.48958        0.00000
 BRILLOUIN|  1057           0.00087       -0.03125       -0.48958        0.00000
 BRILLOUIN|  1058           0.00087       -0.03125       -0.46875        0.00000
 BRILLOUIN|  1059           0.00087       -0.03125       -0.44792        0.00000
 BRILLOUIN|  1060           0.00087       -0.03125       -0.42708        0.00000
 BRILLOUIN|  1061           0.00087       -0.03125       -0.40625        0.00000
 BRILLOUIN|  1062           0.00087       -0.03125       -0.38542        0.00000
 BRILLOUIN|  1063           0.00087       -0.03125       -0.36458        0.00000
 BRILLOUIN|  1064           0.00087       -0.03125       -0.34375        0.00000
 BRILLOUIN|  1065           0.00087       -0.03125       -0.32292        0.00000
 BRILLOUIN|  1066           0.00087       -0.03125       -0.30208        0.00000
 BRILLOUIN|  1067           0.00087       -0.03125       -0.28125        0.00000
 BRILLOUIN|  1068           0.00087       -0.03125       -0.26042        0.00000
 BRILLOUIN|  1069           0.00087       -0.03125       -0.23958        0.00000
 BRILLOUIN|  1070           0.00087       -0.03125       -0.21875        0.00000
 BRILLOUIN|  1071           0.00087       -0.03125       -0.19792        0.00000
 BRILLOUIN|  1072           0.00087       -0.03125       -0.17708        0.00000
 BRILLOUIN|  1073           0.00087       -0.03125       -0.15625        0.00000
 BRILLOUIN|  1074           0.00087       -0.03125       -0.13542        0.00000
 BRILLOUIN|  1075           0.00087       -0.03125       -0.11458        0.00000
 BRILLOUIN|  1076           0.00087       -0.03125       -0.09375        0.00000
 BRILLOUIN|  1077           0.00087       -0.03125       -0.07292        0.00000
 BRILLOUIN|  1078           0.00087       -0.03125       -0.05208        0.00000
 BRILLOUIN|  1079           0.00087       -0.03125       -0.03125        0.00000
 BRILLOUIN|  1080           0.00087       -0.03125       -0.01042        0.00000
 BRILLOUIN|  1081           0.00087       -0.03125        0.01042        0.00000
 BRILLOUIN|  1082           0.00087       -0.03125        0.03125        0.00000
 BRILLOUIN|  1083           0.00087       -0.03125        0.05208        0.00000
 BRILLOUIN|  1084           0.00087       -0.03125        0.07292        0.00000
 BRILLOUIN|  1085           0.00087       -0.03125        0.09375        0.00000
 BRILLOUIN|  1086           0.00087       -0.03125        0.11458        0.00000
 BRILLOUIN|  1087           0.00087       -0.03125        0.13542        0.00000
 BRILLOUIN|  1088           0.00087       -0.03125        0.15625        0.00000
 BRILLOUIN|  1089           0.00087       -0.03125        0.17708        0.00000
 BRILLOUIN|  1090           0.00087       -0.03125        0.19792        0.00000
 BRILLOUIN|  1091           0.00087       -0.03125        0.21875        0.00000
 BRILLOUIN|  1092           0.00087       -0.03125        0.23958        0.00000
 BRILLOUIN|  1093           0.00087       -0.03125        0.26042        0.00000
 BRILLOUIN|  1094           0.00087       -0.03125        0.28125        0.00000
 BRILLOUIN|  1095           0.00087       -0.03125        0.30208        0.00000
 BRILLOUIN|  1096           0.00087       -0.03125        0.32292        0.00000
 BRILLOUIN|  1097           0.00087       -0.03125        0.34375        0.00000
 BRILLOUIN|  1098           0.00087       -0.03125        0.36458        0.00000
 BRILLOUIN|  1099           0.00087       -0.03125        0.38542        0.00000
 BRILLOUIN|  1100           0.00087       -0.03125        0.40625        0.00000
 BRILLOUIN|  1101           0.00087       -0.03125        0.42708        0.00000
 BRILLOUIN|  1102           0.00087       -0.03125        0.44792        0.00000
 BRILLOUIN|  1103           0.00087       -0.03125        0.46875        0.00000
 BRILLOUIN|  1104           0.00087       -0.03125        0.48958        0.00000
 BRILLOUIN|  1105           0.00087       -0.01042       -0.48958        0.00000
 BRILLOUIN|  1106           0.00087       -0.01042       -0.46875        0.00000
 BRILLOUIN|  1107           0.00087       -0.01042       -0.44792        0.00000
 BRILLOUIN|  1108           0.00087       -0.01042       -0.42708        0.00000
 BRILLOUIN|  1109           0.00087       -0.01042       -0.40625        0.00000
 BRILLOUIN|  1110           0.00087       -0.01042       -0.38542        0.00000
 BRILLOUIN|  1111           0.00087       -0.01042       -0.36458        0.00000
 BRILLOUIN|  1112           0.00087       -0.01042       -0.34375        0.00000
 BRILLOUIN|  1113           0.00087       -0.01042       -0.32292        0.00000
 BRILLOUIN|  1114           0.00087       -0.01042       -0.30208        0.00000
 BRILLOUIN|  1115           0.00087       -0.01042       -0.28125        0.00000
 BRILLOUIN|  1116           0.00087       -0.01042       -0.26042        0.00000
 BRILLOUIN|  1117           0.00087       -0.01042       -0.23958        0.00000
 BRILLOUIN|  1118           0.00087       -0.01042       -0.21875        0.00000
 BRILLOUIN|  1119           0.00087       -0.01042       -0.19792        0.00000
 BRILLOUIN|  1120           0.00087       -0.01042       -0.17708        0.00000
 BRILLOUIN|  1121           0.00087       -0.01042       -0.15625        0.00000
 BRILLOUIN|  1122           0.00087       -0.01042       -0.13542        0.00000
 BRILLOUIN|  1123           0.00087       -0.01042       -0.11458        0.00000
 BRILLOUIN|  1124           0.00087       -0.01042       -0.09375        0.00000
 BRILLOUIN|  1125           0.00087       -0.01042       -0.07292        0.00000
 BRILLOUIN|  1126           0.00087       -0.01042       -0.05208        0.00000
 BRILLOUIN|  1127           0.00087       -0.01042       -0.03125        0.00000
 BRILLOUIN|  1128           0.00087       -0.01042       -0.01042        0.00000
 BRILLOUIN|  1129           0.00087       -0.01042        0.01042        0.00000
 BRILLOUIN|  1130           0.00087       -0.01042        0.03125        0.00000
 BRILLOUIN|  1131           0.00087       -0.01042        0.05208        0.00000
 BRILLOUIN|  1132           0.00087       -0.01042        0.07292        0.00000
 BRILLOUIN|  1133           0.00087       -0.01042        0.09375        0.00000
 BRILLOUIN|  1134           0.00087       -0.01042        0.11458        0.00000
 BRILLOUIN|  1135           0.00087       -0.01042        0.13542        0.00000
 BRILLOUIN|  1136           0.00087       -0.01042        0.15625        0.00000
 BRILLOUIN|  1137           0.00087       -0.01042        0.17708        0.00000
 BRILLOUIN|  1138           0.00087       -0.01042        0.19792        0.00000
 BRILLOUIN|  1139           0.00087       -0.01042        0.21875        0.00000
 BRILLOUIN|  1140           0.00087       -0.01042        0.23958        0.00000
 BRILLOUIN|  1141           0.00087       -0.01042        0.26042        0.00000
 BRILLOUIN|  1142           0.00087       -0.01042        0.28125        0.00000
 BRILLOUIN|  1143           0.00087       -0.01042        0.30208        0.00000
 BRILLOUIN|  1144           0.00087       -0.01042        0.32292        0.00000
 BRILLOUIN|  1145           0.00087       -0.01042        0.34375        0.00000
 BRILLOUIN|  1146           0.00087       -0.01042        0.36458        0.00000
 BRILLOUIN|  1147           0.00087       -0.01042        0.38542        0.00000
 BRILLOUIN|  1148           0.00087       -0.01042        0.40625        0.00000
 BRILLOUIN|  1149           0.00087       -0.01042        0.42708        0.00000
 BRILLOUIN|  1150           0.00087       -0.01042        0.44792        0.00000
 BRILLOUIN|  1151           0.00087       -0.01042        0.46875        0.00000
 BRILLOUIN|  1152           0.00087       -0.01042        0.48958        0.00000
 *******************************************************************************

 *******************************************************************************
 *******************************************************************************
 **                                                                           **
 **     #####                         ##              ##                      **
 **    ##   ##            ##          ##              ##                      **
 **   ##     ##                       ##            ######                    **
 **   ##     ##  ##   ##  ##   #####  ##  ##   ####   ##    #####    #####    **
 **   ##     ##  ##   ##  ##  ##      ## ##   ##      ##   ##   ##  ##   ##   **
 **   ##  ## ##  ##   ##  ##  ##      ####     ###    ##   ######   ######    **
 **    ##  ###   ##   ##  ##  ##      ## ##      ##   ##   ##       ##        **
 **     #######   #####   ##   #####  ##  ##  ####    ##    #####   ##        **
 **           ##                                                    ##        **
 **                                                                           **
 **                                                ... make the atoms dance   **
 **                                                                           **
 **            Copyright (C) by CP2K developers group (2000-2025)             **
 **                      J. Chem. Phys. 152, 194103 (2020)                    **
 **                                                                           **
 *******************************************************************************

 DFT| Spin restricted Kohn-Sham (RKS) calculation                            RKS
 DFT| Multiplicity                                                             1
 DFT| Number of spin states                                                    1
 DFT| Charge                                                                   0
 DFT| Self-interaction correction (SIC)                                       NO
 DFT| Cutoffs: density                                              1.000000E-10
 DFT|          gradient                                             1.000000E-10
 DFT|          tau                                                  1.000000E-10
 DFT|          cutoff_smoothing_range                               0.000000E+00
 DFT| XC density smoothing                                                  NONE
 DFT| XC derivatives                                                          PW

 FUNCTIONAL| PBE:
 FUNCTIONAL| J.P.Perdew, K.Burke, M.Ernzerhof, Phys. Rev. Letter, vol. 77, n 18,
 FUNCTIONAL|  pp. 3865-3868, (1996) {spin unpolarized}                          


 QS| Method:                                                                 GPW
 QS| Density plane wave grid type                        NON-SPHERICAL FULLSPACE
 QS| Number of grid levels:                                                    4
 QS| Density cutoff [a.u.]:                                                500.0
 QS| Multi grid cutoff [a.u.]: 1) grid level                               500.0
 QS|                           2) grid level                               166.7
 QS|                           3) grid level                                55.6
 QS|                           4) grid level                                18.5
 QS| Grid level progression factor:                                          3.0
 QS| Relative density cutoff [a.u.]:                                        50.0
 QS| Interaction thresholds: eps_pgf_orb:                                1.0E-12
 QS|                         eps_filter_matrix:                          0.0E+00
 QS|                         eps_core_charge:                            1.0E-14
 QS|                         eps_rho_gspace:                             1.0E-12
 QS|                         eps_rho_rspace:                             1.0E-12
 QS|                         eps_gvg_rspace:                             1.0E-06
 QS|                         eps_ppl:                                    1.0E-02
 QS|                         eps_ppnl:                                   1.0E-08


 ATOMIC KIND INFORMATION

  1. Atomic kind: B                                     Number of atoms:       1

     Orbital Basis Set                                    TZVP-MOLOPT-PBE-GTH-q3

       Number of orbital shell sets:                                           1
       Number of orbital shells:                                               7
       Number of primitive Cartesian functions:                                5
       Number of Cartesian basis functions:                                   18
       Number of spherical basis functions:                                   17
       Norm type:                                                              2

       Normalised Cartesian orbitals:

                        Set   Shell   Orbital            Exponent    Coefficient

                          1       1    2s                3.575233      -0.251277
                                                         1.347699      -0.198106
                                                         0.614553       0.172878
                                                         0.253523       0.151700
                                                         0.085137       0.035450

                          1       2    3s                3.575233       0.549636
                                                         1.347699       0.196373
                                                         0.614553      -0.255207
                                                         0.253523      -0.051628
                                                         0.085137       0.138907

                          1       3    4s                3.575233      -2.548426
                                                         1.347699      -0.015252
                                                         0.614553       0.995642
                                                         0.253523      -0.496980
                                                         0.085137       0.095773

                          1       4    3px               3.575233      -0.379954
                                                         1.347699      -0.232253
                                                         0.614553      -0.197045
                                                         0.253523      -0.107441
                                                         0.085137      -0.025250
                          1       4    3py               3.575233      -0.379954
                                                         1.347699      -0.232253
                                                         0.614553      -0.197045
                                                         0.253523      -0.107441
                                                         0.085137      -0.025250
                          1       4    3pz               3.575233      -0.379954
                                                         1.347699      -0.232253
                                                         0.614553      -0.197045
                                                         0.253523      -0.107441
                                                         0.085137      -0.025250

                          1       5    4px               3.575233       0.795891
                                                         1.347699       0.510277
                                                         0.614553       0.370808
                                                         0.253523       0.096082
                                                         0.085137      -0.053145
                          1       5    4py               3.575233       0.795891
                                                         1.347699       0.510277
                                                         0.614553       0.370808
                                                         0.253523       0.096082
                                                         0.085137      -0.053145
                          1       5    4pz               3.575233       0.795891
                                                         1.347699       0.510277
                                                         0.614553       0.370808
                                                         0.253523       0.096082
                                                         0.085137      -0.053145

                          1       6    5px               3.575233       1.547907
                                                         1.347699       0.913267
                                                         0.614553       0.659546
                                                         0.253523      -0.229482
                                                         0.085137       0.016583
                          1       6    5py               3.575233       1.547907
                                                         1.347699       0.913267
                                                         0.614553       0.659546
                                                         0.253523      -0.229482
                                                         0.085137       0.016583
                          1       6    5pz               3.575233       1.547907
                                                         1.347699       0.913267
                                                         0.614553       0.659546
                                                         0.253523      -0.229482
                                                         0.085137       0.016583

                          1       7    4dx2              3.575233      -0.146757
                                                         1.347699       0.616788
                                                         0.614553       0.145475
                                                         0.253523       0.099150
                                                         0.085137       0.002211
                          1       7    4dxy              3.575233      -0.254191
                                                         1.347699       1.068308
                                                         0.614553       0.251971
                                                         0.253523       0.171733
                                                         0.085137       0.003829
                          1       7    4dxz              3.575233      -0.254191
                                                         1.347699       1.068308
                                                         0.614553       0.251971
                                                         0.253523       0.171733
                                                         0.085137       0.003829
                          1       7    4dy2              3.575233      -0.146757
                                                         1.347699       0.616788
                                                         0.614553       0.145475
                                                         0.253523       0.099150
                                                         0.085137       0.002211
                          1       7    4dyz              3.575233      -0.254191
                                                         1.347699       1.068308
                                                         0.614553       0.251971
                                                         0.253523       0.171733
                                                         0.085137       0.003829
                          1       7    4dz2              3.575233      -0.146757
                                                         1.347699       0.616788
                                                         0.614553       0.145475
                                                         0.253523       0.099150
                                                         0.085137       0.002211

     RI Auxiliary Basis Set             RI_aug-TZVP-MOLOPT-GTH-tier-2_N_RI_064_s

       Number of orbital shell sets:                                          18
       Number of orbital shells:                                              18
       Number of primitive Cartesian functions:                               18
       Number of Cartesian basis functions:                                   82
       Number of spherical basis functions:                                   64
       Norm type:                                                              2

       Normalised Cartesian orbitals:

                        Set   Shell   Orbital            Exponent    Coefficient

                          1       1    8px               0.206264       0.198139
                          1       1    8py               0.206264       0.198139
                          1       1    8pz               0.206264       0.198139

                          2       1    1s                0.215930       0.225759

                          3       1   15fx3              0.230149       0.054010
                          3       1   15fx2y             0.230149       0.120770
                          3       1   15fx2z             0.230149       0.120770
                          3       1   15fxy2             0.230149       0.120770
                          3       1   15fxyz             0.230149       0.209180
                          3       1   15fxz2             0.230149       0.120770
                          3       1   15fy3              0.230149       0.054010
                          3       1   15fy2z             0.230149       0.120770
                          3       1   15fyz2             0.230149       0.120770
                          3       1   15fz3              0.230149       0.054010

                          4       1   12dx2              0.244574       0.140000
                          4       1   12dxy              0.244574       0.242486
                          4       1   12dxz              0.244574       0.242486
                          4       1   12dy2              0.244574       0.140000
                          4       1   12dyz              0.244574       0.242486
                          4       1   12dz2              0.244574       0.140000

                          5       1    9px               0.359540       0.396848
                          5       1    9py               0.359540       0.396848
                          5       1    9pz               0.359540       0.396848

                          6       1    2s                0.373900       0.340782

                          7       1   13dx2              0.449795       0.406617
                          7       1   13dxy              0.449795       0.704281
                          7       1   13dxz              0.449795       0.704281
                          7       1   13dy2              0.449795       0.406617
                          7       1   13dyz              0.449795       0.704281
                          7       1   13dz2              0.449795       0.406617

                          8       1   16fx3              0.465468       0.263455
                          8       1   16fx2y             0.465468       0.589103
                          8       1   16fx2z             0.465468       0.589103
                          8       1   16fxy2             0.465468       0.589103
                          8       1   16fxyz             0.465468       1.020357
                          8       1   16fxz2             0.465468       0.589103
                          8       1   16fy3              0.465468       0.263455
                          8       1   16fy2z             0.465468       0.589103
                          8       1   16fyz2             0.465468       0.589103
                          8       1   16fz3              0.465468       0.263455

                          9       1   18gx4              0.505241       0.170238
                          9       1   18gx3y             0.505241       0.450408
                          9       1   18gx3z             0.505241       0.450408
                          9       1   18gx2y2            0.505241       0.581474
                          9       1   18gx2yz            0.505241       1.007143
                          9       1   18gx2z2            0.505241       0.581474
                          9       1   18gxy3             0.505241       0.450408
                          9       1   18gxy2z            0.505241       1.007143
                          9       1   18gxyz2            0.505241       1.007143
                          9       1   18gxz3             0.505241       0.450408
                          9       1   18gy4              0.505241       0.170238
                          9       1   18gy3z             0.505241       0.450408
                          9       1   18gy2z2            0.505241       0.581474
                          9       1   18gyz3             0.505241       0.450408
                          9       1   18gz4              0.505241       0.170238

                         10       1    3s                0.648432       0.515002

                         11       1   10px               0.912663       1.271534
                         11       1   10py               0.912663       1.271534
                         11       1   10pz               0.912663       1.271534

                         12       1   14dx2              0.919980       1.422401
                         12       1   14dxy              0.919980       2.463670
                         12       1   14dxz              0.919980       2.463670
                         12       1   14dy2              0.919980       1.422401
                         12       1   14dyz              0.919980       2.463670
                         12       1   14dz2              0.919980       1.422401

                         13       1    4s                1.127550       0.779852

                         14       1    5s                1.964874       1.182799

                         15       1   11px               2.688688       4.907561
                         15       1   11py               2.688688       4.907561
                         15       1   11pz               2.688688       4.907561

                         16       1    6s                3.423657       1.793816

                         17       1   17fx3              4.060713      34.459555
                         17       1   17fx2y             4.060713      77.053907
                         17       1   17fx2z             4.060713      77.053907
                         17       1   17fxy2             4.060713      77.053907
                         17       1   17fxyz             4.060713     133.461281
                         17       1   17fxz2             4.060713      77.053907
                         17       1   17fy3              4.060713      34.459555
                         17       1   17fy2z             4.060713      77.053907
                         17       1   17fyz2             4.060713      77.053907
                         17       1   17fz3              4.060713      34.459555

                         18       1    7s                5.963055       2.719642

       Atomic covalent radius [Angstrom]:                                  0.820

       Atomic van der Waals radius [Angstrom]:                             1.920

     GTH Potential information for                                    GTH-PBE-q3

       Description:                       Goedecker-Teter-Hutter pseudopotential
                                           Goedecker et al., PRB 54, 1703 (1996)
                                          Hartwigsen et al., PRB 58, 3641 (1998)
                                                      Krack, TCA 114, 145 (2005)

       Gaussian exponent of the core charge distribution:               2.848129
       Electronic configuration (s p d ...):                               2   1

       Parameters of the local part of the GTH pseudopotential:

                          rloc        C1          C2          C3          C4
                        0.418991   -5.859462    0.903756

       Parameters of the non-local part of the GTH (SOC) pseudopotential:

                   l      r(l)      h(i,j,l)
                                    k(i,j,l)
                   0    0.371320    6.297280
                   1    0.364563    0.000000
                                    0.000855

  2. Atomic kind: N                                     Number of atoms:       1

     Orbital Basis Set                                    TZVP-MOLOPT-PBE-GTH-q5

       Number of orbital shell sets:                                           1
       Number of orbital shells:                                               7
       Number of primitive Cartesian functions:                                5
       Number of Cartesian basis functions:                                   18
       Number of spherical basis functions:                                   17
       Norm type:                                                              2

       Normalised Cartesian orbitals:

                        Set   Shell   Orbital            Exponent    Coefficient

                          1       1    2s                7.677291      -0.433945
                                                         2.819662      -0.225884
                                                         1.091144       0.281004
                                                         0.431009       0.272485
                                                         0.138938       0.015194

                          1       2    3s                7.677291       0.166796
                                                         2.819662       0.071789
                                                         1.091144      -0.075890
                                                         0.431009      -0.026983
                                                         0.138938       0.175604

                          1       3    4s                7.677291      -2.778831
                                                         2.819662      -0.627092
                                                         1.091144       0.528782
                                                         0.431009      -0.229325
                                                         0.138938       0.013164

                          1       4    3px               7.677291      -1.160805
                                                         2.819662      -0.968875
                                                         1.091144      -0.555552
                                                         0.431009      -0.214049
                                                         0.138938      -0.025189
                          1       4    3py               7.677291      -1.160805
                                                         2.819662      -0.968875
                                                         1.091144      -0.555552
                                                         0.431009      -0.214049
                                                         0.138938      -0.025189
                          1       4    3pz               7.677291      -1.160805
                                                         2.819662      -0.968875
                                                         1.091144      -0.555552
                                                         0.431009      -0.214049
                                                         0.138938      -0.025189

                          1       5    4px               7.677291       1.006840
                                                         2.819662       0.803085
                                                         1.091144       0.516640
                                                         0.431009       0.089613
                                                         0.138938      -0.129545
                          1       5    4py               7.677291       1.006840
                                                         2.819662       0.803085
                                                         1.091144       0.516640
                                                         0.431009       0.089613
                                                         0.138938      -0.129545
                          1       5    4pz               7.677291       1.006840
                                                         2.819662       0.803085
                                                         1.091144       0.516640
                                                         0.431009       0.089613
                                                         0.138938      -0.129545

                          1       6    5px               7.677291       2.926325
                                                         2.819662       2.482327
                                                         1.091144       1.352293
                                                         0.431009      -0.498852
                                                         0.138938       0.020139
                          1       6    5py               7.677291       2.926325
                                                         2.819662       2.482327
                                                         1.091144       1.352293
                                                         0.431009      -0.498852
                                                         0.138938       0.020139
                          1       6    5pz               7.677291       2.926325
                                                         2.819662       2.482327
                                                         1.091144       1.352293
                                                         0.431009      -0.498852
                                                         0.138938       0.020139

                          1       7    4dx2              7.677291       2.735993
                                                         2.819662       0.863524
                                                         1.091144       0.633376
                                                         0.431009       0.247924
                                                         0.138938       0.003429
                          1       7    4dxy              7.677291       4.738879
                                                         2.819662       1.495667
                                                         1.091144       1.097040
                                                         0.431009       0.429417
                                                         0.138938       0.005939
                          1       7    4dxz              7.677291       4.738879
                                                         2.819662       1.495667
                                                         1.091144       1.097040
                                                         0.431009       0.429417
                                                         0.138938       0.005939
                          1       7    4dy2              7.677291       2.735993
                                                         2.819662       0.863524
                                                         1.091144       0.633376
                                                         0.431009       0.247924
                                                         0.138938       0.003429
                          1       7    4dyz              7.677291       4.738879
                                                         2.819662       1.495667
                                                         1.091144       1.097040
                                                         0.431009       0.429417
                                                         0.138938       0.005939
                          1       7    4dz2              7.677291       2.735993
                                                         2.819662       0.863524
                                                         1.091144       0.633376
                                                         0.431009       0.247924
                                                         0.138938       0.003429

     RI Auxiliary Basis Set             RI_aug-TZVP-MOLOPT-GTH-tier-2_N_RI_101_s

       Number of orbital shell sets:                                          23
       Number of orbital shells:                                              23
       Number of primitive Cartesian functions:                               23
       Number of Cartesian basis functions:                                  142
       Number of spherical basis functions:                                  101
       Norm type:                                                              2

       Normalised Cartesian orbitals:

                        Set   Shell   Orbital            Exponent    Coefficient

                          1       1    1s                0.097466       0.124322

                          2       1   20gx4              0.112393       0.002729
                          2       1   20gx3y             0.112393       0.007220
                          2       1   20gx3z             0.112393       0.007220
                          2       1   20gx2y2            0.112393       0.009320
                          2       1   20gx2yz            0.112393       0.016144
                          2       1   20gx2z2            0.112393       0.009320
                          2       1   20gxy3             0.112393       0.007220
                          2       1   20gxy2z            0.112393       0.016144
                          2       1   20gxyz2            0.112393       0.016144
                          2       1   20gxz3             0.112393       0.007220
                          2       1   20gy4              0.112393       0.002729
                          2       1   20gy3z             0.112393       0.007220
                          2       1   20gy2z2            0.112393       0.009320
                          2       1   20gyz3             0.112393       0.007220
                          2       1   20gz4              0.112393       0.002729

                          3       1    8px               0.128111       0.109251
                          3       1    8py               0.128111       0.109251
                          3       1    8pz               0.128111       0.109251

                          4       1   17fx3              0.175534       0.029361
                          4       1   17fx2y             0.175534       0.065653
                          4       1   17fx2z             0.175534       0.065653
                          4       1   17fxy2             0.175534       0.065653
                          4       1   17fxyz             0.175534       0.113714
                          4       1   17fxz2             0.175534       0.065653
                          4       1   17fy3              0.175534       0.029361
                          4       1   17fy2z             0.175534       0.065653
                          4       1   17fyz2             0.175534       0.065653
                          4       1   17fz3              0.175534       0.029361

                          5       1   13dx2              0.175945       0.078672
                          5       1   13dxy              0.175945       0.136263
                          5       1   13dxz              0.175945       0.136263
                          5       1   13dy2              0.175945       0.078672
                          5       1   13dyz              0.175945       0.136263
                          5       1   13dz2              0.175945       0.078672

                          6       1    2s                0.223262       0.231484

                          7       1    9px               0.500427       0.599951
                          7       1    9py               0.500427       0.599951
                          7       1    9pz               0.500427       0.599951

                          8       1    3s                0.512980       0.432001

                          9       1   18fx3              0.707585       0.676016
                          9       1   18fx2y             0.707585       1.511618
                          9       1   18fx2z             0.707585       1.511618
                          9       1   18fxy2             0.707585       1.511618
                          9       1   18fxyz             0.707585       2.618199
                          9       1   18fxz2             0.707585       1.511618
                          9       1   18fy3              0.707585       0.676016
                          9       1   18fy2z             0.707585       1.511618
                          9       1   18fyz2             0.707585       1.511618
                          9       1   18fz3              0.707585       0.676016

                         10       1   14dx2              0.901573       1.372971
                         10       1   14dxy              0.901573       2.378055
                         10       1   14dxz              0.901573       2.378055
                         10       1   14dy2              0.901573       1.372971
                         10       1   14dyz              0.901573       2.378055
                         10       1   14dz2              0.901573       1.372971

                         11       1   21gx4              1.018364       1.169955
                         11       1   21gx3y             1.018364       3.095410
                         11       1   21gx3z             1.018364       3.095410
                         11       1   21gx2y2            1.018364       3.996157
                         11       1   21gx2yz            1.018364       6.921548
                         11       1   21gx2z2            1.018364       3.996157
                         11       1   21gxy3             1.018364       3.095410
                         11       1   21gxy2z            1.018364       6.921548
                         11       1   21gxyz2            1.018364       6.921548
                         11       1   21gxz3             1.018364       3.095410
                         11       1   21gy4              1.018364       1.169955
                         11       1   21gy3z             1.018364       3.095410
                         11       1   21gy2z2            1.018364       3.996157
                         11       1   21gyz3             1.018364       3.095410
                         11       1   21gz4              1.018364       1.169955

                         12       1    4s                1.187845       0.810923

                         13       1   10px               1.655775       2.677267
                         13       1   10py               1.655775       2.677267
                         13       1   10pz               1.655775       2.677267

                         14       1   15dx2              1.785958       4.541341
                         14       1   15dxy              1.785958       7.865833
                         14       1   15dxz              1.785958       7.865833
                         14       1   15dy2              1.785958       4.541341
                         14       1   15dyz              1.785958       7.865833
                         14       1   15dz2              1.785958       4.541341

                         15       1   19fx3              2.170141       8.414962
                         15       1   19fx2y             2.170141      18.816426
                         15       1   19fx2z             2.170141      18.816426
                         15       1   19fxy2             2.170141      18.816426
                         15       1   19fxyz             2.170141      32.591006
                         15       1   19fxz2             2.170141      18.816426
                         15       1   19fy3              2.170141       8.414962
                         15       1   19fy2z             2.170141      18.816426
                         15       1   19fyz2             2.170141      18.816426
                         15       1   19fz3              2.170141       8.414962

                         16       1   11px               2.226538       3.876839
                         16       1   11py               2.226538       3.876839
                         16       1   11pz               2.226538       3.876839

                         17       1   22gx4              2.618062      15.699290
                         17       1   22gx3y             2.618062      41.536418
                         17       1   22gx3z             2.618062      41.536418
                         17       1   22gx2y2            2.618062      53.623285
                         17       1   22gx2yz            2.618062      92.878254
                         17       1   22gx2z2            2.618062      53.623285
                         17       1   22gxy3             2.618062      41.536418
                         17       1   22gxy2z            2.618062      92.878254
                         17       1   22gxyz2            2.618062      92.878254
                         17       1   22gxz3             2.618062      41.536418
                         17       1   22gy4              2.618062      15.699290
                         17       1   22gy3z             2.618062      41.536418
                         17       1   22gy2z2            2.618062      53.623285
                         17       1   22gyz3             2.618062      41.536418
                         17       1   22gz4              2.618062      15.699290

                         18       1   23hx5              2.698928      18.694594
                         18       1   23hx4y             2.698928      56.083783
                         18       1   23hx4z             2.698928      56.083783
                         18       1   23hx3y2            2.698928      85.669394
                         18       1   23hx3yz            2.698928     148.383743
                         18       1   23hx3z2            2.698928      85.669394
                         18       1   23hx2y3            2.698928      85.669394
                         18       1   23hx2y2z           2.698928     191.562589
                         18       1   23hx2yz2           2.698928     191.562589
                         18       1   23hx2z3            2.698928      85.669394
                         18       1   23hxy4             2.698928      56.083783
                         18       1   23hxy3z            2.698928     148.383743
                         18       1   23hxy2z2           2.698928     191.562589
                         18       1   23hxyz3            2.698928     148.383743
                         18       1   23hxz4             2.698928      56.083783
                         18       1   23hy5              2.698928      18.694594
                         18       1   23hy4z             2.698928      56.083783
                         18       1   23hy3z2            2.698928      85.669394
                         18       1   23hy2z3            2.698928      85.669394
                         18       1   23hyz4             2.698928      56.083783
                         18       1   23hz5              2.698928      18.694594

                         19       1    5s                2.810656       1.547091

                         20       1    6s                6.565607       2.923252

                         21       1   16dx2              6.627905      45.062774
                         21       1   16dxy              6.627905      78.051014
                         21       1   16dxz              6.627905      78.051014
                         21       1   16dy2              6.627905      45.062774
                         21       1   16dyz              6.627905      78.051014
                         21       1   16dz2              6.627905      45.062774

                         22       1   12px               7.810695      18.612393
                         22       1   12py               7.810695      18.612393
                         22       1   12pz               7.810695      18.612393

                         23       1    7s               15.152838       5.473695

       Atomic covalent radius [Angstrom]:                                  0.750

       Atomic van der Waals radius [Angstrom]:                             1.550

     GTH Potential information for                                    GTH-PBE-q5

       Description:                       Goedecker-Teter-Hutter pseudopotential
                                           Goedecker et al., PRB 54, 1703 (1996)
                                          Hartwigsen et al., PRB 58, 3641 (1998)
                                                      Krack, TCA 114, 145 (2005)

       Gaussian exponent of the core charge distribution:               6.208322
       Electronic configuration (s p d ...):                               2   3

       Parameters of the local part of the GTH pseudopotential:

                          rloc        C1          C2          C3          C4
                        0.283791  -12.415226    1.868096

       Parameters of the non-local part of the GTH (SOC) pseudopotential:

                   l      r(l)      h(i,j,l)
                                    k(i,j,l)
                   0    0.255405   13.630263
                   1    0.245495    0.000000
                                    0.004148


 MOLECULE KIND INFORMATION


 All atoms are their own molecule, skipping detailed information


 TOTAL NUMBERS AND MAXIMUM NUMBERS

  Total number of            - Atomic kinds:                                   2
                             - Atoms:                                          2
                             - Shell sets:                                     2
                             - Shells:                                        14
                             - Primitive Cartesian functions:                 10
                             - Cartesian basis functions:                     36
                             - Spherical basis functions:                     34

  Maximum angular momentum of- Orbital basis functions:                        2
                             - Local part of the GTH pseudopotential:          2
                             - Non-local part of the GTH pseudopotential:      1


 MODULE QUICKSTEP: ATOMIC COORDINATES IN ANGSTROM

   Atom Kind Element         X             Y             Z       Z(eff)     Mass
      1    1 B     5      0.000000      1.449303      7.500000   3.0000  10.8110
      2    2 N     7      1.255134      0.724652      7.500000   5.0000  14.0067



 SCF PARAMETERS         Density guess:                                    ATOMIC
                        --------------------------------------------------------
                        max_scf:                                             500
                        max_scf_history:                                       0
                        max_diis:                                              4
                        --------------------------------------------------------
                        eps_scf:                                        1.00E-09
                        eps_scf_history:                                0.00E+00
                        eps_diis:                                       1.00E-01
                        eps_eigval:                                     1.00E-05
                        --------------------------------------------------------
                        level_shift [a.u.]:                             0.000000
                        added MOs                                        30    0
                        --------------------------------------------------------
                        Mixing method:                            BROYDEN_MIXING
                                                charge density mixing in g-space
                        --------------------------------------------------------
                        No outer SCF

 PW_GRID| Information for grid number                                          1
 PW_GRID| Grid distributed over                                   256 processors
 PW_GRID| Real space group dimensions                                    16   16
 PW_GRID| the grid is blocked:                                               YES
 PW_GRID| Cutoff [a.u.]                                                    500.0
 PW_GRID| spherical cutoff:                                                   NO
 PW_GRID|   Bounds   1            -24      23                Points:          48
 PW_GRID|   Bounds   2            -24      23                Points:          48
 PW_GRID|   Bounds   3           -144     143                Points:         288
 PW_GRID| Volume element (a.u.^3)  0.8323E-03     Volume (a.u.^3)       552.2884
 PW_GRID| Grid span                                                    FULLSPACE
 PW_GRID|   Distribution                         Average         Max         Min
 PW_GRID|   G-Vectors                             2592.0        2592        2592
 PW_GRID|   G-Rays                                  54.0          54          54
 PW_GRID|   Real Space Points                     2592.0        2592        2592

 PW_GRID| Information for grid number                                          2
 PW_GRID| Number of the reference grid                                         1
 PW_GRID| Grid distributed over                                   256 processors
 PW_GRID| Real space group dimensions                                    16   16
 PW_GRID| the grid is blocked:                                                NO
 PW_GRID| Cutoff [a.u.]                                                    166.7
 PW_GRID| spherical cutoff:                                                   NO
 PW_GRID|   Bounds   1            -13      13                Points:          27
 PW_GRID|   Bounds   2            -13      13                Points:          27
 PW_GRID|   Bounds   3            -90      89                Points:         180
 PW_GRID| Volume element (a.u.^3)  0.4209E-02     Volume (a.u.^3)       552.2884
 PW_GRID| Grid span                                                    FULLSPACE
 PW_GRID|   Distribution                         Average         Max         Min
 PW_GRID|   G-Vectors                              512.6        1458           0
 PW_GRID|   G-Rays                                  19.0          54           0
 PW_GRID|   Real Space Points                      512.6         720         180

 PW_GRID| Information for grid number                                          3
 PW_GRID| Number of the reference grid                                         1
 PW_GRID| Grid distributed over                                   256 processors
 PW_GRID| Real space group dimensions                                    16   16
 PW_GRID| the grid is blocked:                                                NO
 PW_GRID| Cutoff [a.u.]                                                     55.6
 PW_GRID| spherical cutoff:                                                   NO
 PW_GRID|   Bounds   1             -7       7                Points:          15
 PW_GRID|   Bounds   2             -7       7                Points:          15
 PW_GRID|   Bounds   3            -48      47                Points:          96
 PW_GRID| Volume element (a.u.^3)  0.2557E-01     Volume (a.u.^3)       552.2884
 PW_GRID| Grid span                                                    FULLSPACE
 PW_GRID|   Distribution                         Average         Max         Min
 PW_GRID|   G-Vectors                               84.4         810           0
 PW_GRID|   G-Rays                                   5.6          54           0
 PW_GRID|   Real Space Points                       84.4          96           0

 PW_GRID| Information for grid number                                          4
 PW_GRID| Number of the reference grid                                         1
 PW_GRID| Grid distributed over                                   256 processors
 PW_GRID| Real space group dimensions                                    16   16
 PW_GRID| the grid is blocked:                                                NO
 PW_GRID| Cutoff [a.u.]                                                     18.5
 PW_GRID| spherical cutoff:                                                   NO
 PW_GRID|   Bounds   1             -4       4                Points:           9
 PW_GRID|   Bounds   2             -4       4                Points:           9
 PW_GRID|   Bounds   3            -30      29                Points:          60
 PW_GRID| Volume element (a.u.^3)  0.1136         Volume (a.u.^3)       552.2884
 PW_GRID| Grid span                                                    FULLSPACE
 PW_GRID|   Distribution                         Average         Max         Min
 PW_GRID|   G-Vectors                               19.0         486           0
 PW_GRID|   G-Rays                                   2.1          54           0
 PW_GRID|   Real Space Points                       19.0          60           0

 POISSON| Solver                                                        PERIODIC
 POISSON| Periodicity                                                        XYZ

 *** WARNING in pw_env_methods.F:744 :: The selected periodicities in the ***
 *** sections &CELL and &POISSON do not match                             ***


 RS_GRID| Information for grid number                                          1
 RS_GRID|   Bounds   1            -24      23                Points:          48
 RS_GRID|   Bounds   2            -24      23                Points:          48
 RS_GRID|   Bounds   3           -144     143                Points:         288
 RS_GRID| Real space distribution over                                256 groups
 RS_GRID| Real space distribution along direction                              3
 RS_GRID| Border size                                                         54
 RS_GRID|   Distribution                         Average         Max         Min
 RS_GRID|   Planes                                 109.1         110         109

 RS_GRID| Information for grid number                                          2
 RS_GRID|   Bounds   1            -13      13                Points:          27
 RS_GRID|   Bounds   2            -13      13                Points:          27
 RS_GRID|   Bounds   3            -90      89                Points:         180
 RS_GRID| Real space fully replicated
 RS_GRID| Group size                                                           1

 RS_GRID| Information for grid number                                          3
 RS_GRID|   Bounds   1             -7       7                Points:          15
 RS_GRID|   Bounds   2             -7       7                Points:          15
 RS_GRID|   Bounds   3            -48      47                Points:          96
 RS_GRID| Real space fully replicated
 RS_GRID| Group size                                                           1

 RS_GRID| Information for grid number                                          4
 RS_GRID|   Bounds   1             -4       4                Points:           9
 RS_GRID|   Bounds   2             -4       4                Points:           9
 RS_GRID|   Bounds   3            -30      29                Points:          60
 RS_GRID| Real space fully replicated
 RS_GRID| Group size                                                           1

 Number of electrons:                                                          8
 Number of occupied orbitals:                                                  4
 Number of molecular orbitals:                                                34

 Number of orbital functions:                                                 34
 Number of independent orbital functions:                                     34

 Extrapolation method: initial_guess

 Atomic guess: The first density matrix is obtained in terms of atomic orbitals
               and electronic configurations assigned to each atomic kind

 Guess for atomic kind: B

 Electronic structure
    Total number of core electrons                                          2.00
    Total number of valence electrons                                       3.00
    Total number of electrons                                               5.00
    Multiplicity                                                   not specified
    S   [  2.00] 2.00
    P      1.00


 *******************************************************************************
                  Iteration          Convergence                     Energy [au]
 *******************************************************************************
                          1        0.318465E-01                  -2.531540264260
                          2        0.101784E-01                  -2.532440779639
                          3        0.447090E-03                  -2.532615081054
                          4        0.937586E-06                  -2.532615380170

 Energy components [Hartree]           Total Energy ::           -2.532615380170
                                        Band Energy ::           -0.764856086396
                                     Kinetic Energy ::            1.372237023413
                                   Potential Energy ::           -3.904852403583
                                      Virial (-V/T) ::            2.845610734122
                                        Core Energy ::           -3.754234323912
                                          XC Energy ::           -0.784351887368
                                     Coulomb Energy ::            2.005970831110
                       Total Pseudopotential Energy ::           -5.156123935062
                       Local Pseudopotential Energy ::           -5.552504464016
                    Nonlocal Pseudopotential Energy ::            0.396380528954
                                        Confinement ::            0.296525877372

 Orbital energies  State     L     Occupation   Energy[a.u.]          Energy[eV]

                       1     0          2.000      -0.326344           -8.880279

                       1     1          1.000      -0.112168           -3.052236


 Total Electron Density at R=0:                                         0.000270

 Guess for atomic kind: N

 Electronic structure
    Total number of core electrons                                          2.00
    Total number of valence electrons                                       5.00
    Total number of electrons                                               7.00
    Multiplicity                                                   not specified
    S   [  2.00] 2.00
    P      3.00


 *******************************************************************************
                  Iteration          Convergence                     Energy [au]
 *******************************************************************************
                          1        0.356594                      -9.510725844029
                          2        0.308849                      -9.519206431307
                          3        0.631354E-02                  -9.545471696990
                          4        0.439755E-03                  -9.545486296409
                          5        0.218565E-05                  -9.545486344045
                          6        0.103185E-05                  -9.545486344046
                          7        0.934641E-09                  -9.545486344046

 Energy components [Hartree]           Total Energy ::           -9.545486344046
                                        Band Energy ::           -2.056011503509
                                     Kinetic Energy ::            6.745485466185
                                   Potential Energy ::          -16.290971810231
                                      Virial (-V/T) ::            2.415092567006
                                        Core Energy ::          -15.540353249839
                                          XC Energy ::           -2.163003926076
                                     Coulomb Energy ::            8.157870831868
                       Total Pseudopotential Energy ::          -22.323153084265
                       Local Pseudopotential Energy ::          -23.272972038647
                    Nonlocal Pseudopotential Energy ::            0.949818954382
                                        Confinement ::            0.373143682418

 Orbital energies  State     L     Occupation   Energy[a.u.]          Energy[eV]

                       1     0          2.000      -0.663715          -18.060603

                       1     1          3.000      -0.242861           -6.608571


 Total Electron Density at R=0:                                         0.000125
 Re-scaling the density matrix to get the right number of electrons
                  # Electrons              Trace(P)               Scaling factor
                            8                 8.000                        1.000


 SCF WAVEFUNCTION OPTIMIZATION

  Step     Update method      Time    Convergence         Total energy    Change
  ------------------------------------------------------------------------------
     1 NoMix/Diag. 0.10E+00   10.3     1.11209589       -12.9001991346 -1.29E+01
     2 Broy./Diag. 0.10E+00    9.7     0.02391757       -11.1202750812  1.78E+00
     3 Broy./Diag. 0.10E+00    8.5     0.16583838       -11.8367499320 -7.16E-01
     4 Broy./Diag. 0.10E+00    8.0     0.01743051       -12.6074898995 -7.71E-01
     5 Broy./Diag. 0.10E+00    7.1     0.11094538       -12.6909871472 -8.35E-02
     6 Broy./Diag. 0.10E+00    7.3     0.00300639       -12.7624767989 -7.15E-02
     7 Broy./Diag. 0.10E+00    7.9     0.02812717       -12.8068009597 -4.43E-02
     8 Broy./Diag. 0.10E+00    7.6     0.00315432       -12.8476690659 -4.09E-02
     9 Broy./Diag. 0.10E+00    6.8     0.01964784       -12.8510704524 -3.40E-03
    10 Broy./Diag. 0.10E+00    7.1     0.00072221       -12.8696745607 -1.86E-02
    11 Broy./Diag. 0.10E+00    7.6     0.00422605       -12.8660947531  3.58E-03
    12 Broy./Diag. 0.10E+00    6.9     0.00044181       -12.8706116599 -4.52E-03
    13 Broy./Diag. 0.10E+00    7.2     0.00329163       -12.8737841666 -3.17E-03
    14 Broy./Diag. 0.10E+00    6.9     0.00018830       -12.8759369126 -2.15E-03
    15 Broy./Diag. 0.10E+00    7.4     0.00245686       -12.8752833178  6.54E-04
    16 Broy./Diag. 0.10E+00    6.2     0.00027274       -12.8759910343 -7.08E-04
    17 Broy./Diag. 0.10E+00    7.0     0.00092982       -12.8765757101 -5.85E-04
    18 Broy./Diag. 0.10E+00    7.4     0.00056979       -12.8760476048  5.28E-04
    19 Broy./Diag. 0.10E+00    6.5     0.00045334       -12.8755558583  4.92E-04
    20 Broy./Diag. 0.10E+00    6.9     0.00039695       -12.8763402323 -7.84E-04
    21 Broy./Diag. 0.10E+00    7.4     0.00010967       -12.8765598725 -2.20E-04
    22 Broy./Diag. 0.10E+00    7.0     0.00016182       -12.8763657926  1.94E-04
    23 Broy./Diag. 0.10E+00    6.7     0.00002597       -12.8762903294  7.55E-05
    24 Broy./Diag. 0.10E+00    7.1     0.00007944       -12.8764127745 -1.22E-04
    25 Broy./Diag. 0.10E+00    7.2     0.00001805       -12.8764317437 -1.90E-05
    26 Broy./Diag. 0.10E+00    6.5     0.00005379       -12.8763575035  7.42E-05
    27 Broy./Diag. 0.10E+00    6.9     0.00000573       -12.8763454173  1.21E-05
    28 Broy./Diag. 0.10E+00    7.4     0.00001679       -12.8763627856 -1.74E-05
    29 Broy./Diag. 0.10E+00    6.3     0.00000819       -12.8763658759 -3.09E-06
    30 Broy./Diag. 0.10E+00    7.1     0.00000178       -12.8763525987  1.33E-05
    31 Broy./Diag. 0.10E+00    7.2     0.00000285       -12.8763476841  4.91E-06
    32 Broy./Diag. 0.10E+00    6.6     0.00000113       -12.8763474189  2.65E-07
    33 Broy./Diag. 0.10E+00    6.8     0.00000131       -12.8763509973 -3.58E-06
    34 Broy./Diag. 0.10E+00    7.2     0.00000081       -12.8763521133 -1.12E-06
    35 Broy./Diag. 0.10E+00    6.9     0.00000171       -12.8763514792  6.34E-07
    36 Broy./Diag. 0.10E+00    6.8     0.00000043       -12.8763522053 -7.26E-07
    37 Broy./Diag. 0.10E+00    7.1     0.00000046       -12.8763523980 -1.93E-07
    38 Broy./Diag. 0.10E+00    7.2     0.00000035       -12.8763513407  1.06E-06
    39 Broy./Diag. 0.10E+00    6.5     0.00000038       -12.8763510861  2.55E-07
    40 Broy./Diag. 0.10E+00    6.9     0.00000015       -12.8763520335 -9.47E-07
    41 Broy./Diag. 0.10E+00    7.5     0.00000030       -12.8763522075 -1.74E-07
    42 Broy./Diag. 0.10E+00    6.5     0.00000007       -12.8763519753  2.32E-07
    43 Broy./Diag. 0.10E+00    6.7     0.00000016       -12.8763513552  6.20E-07
    44 Broy./Diag. 0.10E+00    7.3     0.00000006       -12.8763509745  3.81E-07
    45 Broy./Diag. 0.10E+00    6.6     0.00000014       -12.8763512950 -3.20E-07
    46 Broy./Diag. 0.10E+00    6.6     0.00000009       -12.8763512470  4.79E-08
    47 Broy./Diag. 0.10E+00    7.4     0.00000018       -12.8763511331  1.14E-07
    48 Broy./Diag. 0.10E+00    6.8     0.00000008       -12.8763512869 -1.54E-07
    49 Broy./Diag. 0.10E+00    6.8     0.00000016       -12.8763513853 -9.84E-08
    50 Broy./Diag. 0.10E+00    6.9     0.00000014       -12.8763511807  2.05E-07
    51 Broy./Diag. 0.10E+00    7.5     0.00000010       -12.8763510331  1.48E-07
    52 Broy./Diag. 0.10E+00    6.4     0.00000005       -12.8763511102 -7.72E-08
    53 Broy./Diag. 0.10E+00    7.0     0.00000012       -12.8763512296 -1.19E-07
    54 Broy./Diag. 0.10E+00    7.5     0.00000002       -12.8763513237 -9.41E-08
    55 Broy./Diag. 0.10E+00    6.5     0.00000004       -12.8763512154  1.08E-07
    56 Broy./Diag. 0.10E+00    6.7     7.0942E-09       -12.8763511705  4.49E-08
    57 Broy./Diag. 0.10E+00    7.3     0.00000003       -12.8763512099 -3.94E-08
    58 Broy./Diag. 0.10E+00    6.3     8.7801E-09       -12.8763512071  2.81E-09
    59 Broy./Diag. 0.10E+00    6.5     0.00000001       -12.8763511876  1.95E-08
    60 Broy./Diag. 0.10E+00    7.2     0.00000002       -12.8763512097 -2.22E-08
    61 Broy./Diag. 0.10E+00    7.1     5.9687E-09       -12.8763512464 -3.67E-08
    62 Broy./Diag. 0.10E+00    6.8     3.6479E-09       -12.8763512360  1.05E-08
    63 Broy./Diag. 0.10E+00    6.9     4.8195E-09       -12.8763512157  2.03E-08
    64 Broy./Diag. 0.10E+00    7.1     1.5722E-09       -12.8763512035  1.22E-08
    65 Broy./Diag. 0.10E+00    6.5     4.4544E-09       -12.8763512145 -1.11E-08
    66 Broy./Diag. 0.10E+00    6.8     1.5610E-09       -12.8763512213 -6.78E-09
    67 Broy./Diag. 0.10E+00    7.4     8.4942E-09       -12.8763512097  1.16E-08
    68 Broy./Diag. 0.10E+00    6.3     2.7287E-09       -12.8763512060  3.73E-09
    69 Broy./Diag. 0.10E+00    7.1     5.3816E-09       -12.8763512119 -5.92E-09
    70 Broy./Diag. 0.10E+00    7.2     2.5493E-09       -12.8763512112  7.45E-10
    71 Broy./Diag. 0.10E+00    6.5     1.2678E-09       -12.8763512053  5.86E-09
    72 Broy./Diag. 0.10E+00    7.2     2.9156E-09       -12.8763512071 -1.80E-09
    73 Broy./Diag. 0.10E+00    7.0     1.1000E-09       -12.8763512130 -5.90E-09
    74 Broy./Diag. 0.10E+00    7.2     9.2646E-10       -12.8763512130 -2.04E-12

  *** SCF run converged in    74 steps ***


  Electronic density on regular grids:         -8.0000000000        0.0000000000
  Core density on regular grids:                8.0000000000       -0.0000000000
  Total charge density on r-space grids:       -0.0000000000
  Total charge density g-space grids:          -0.0000000000

  Overlap energy of the core charge distribution:               0.00000102720762
  Self energy of the core charge distribution:                -30.91005782344042
  Core Hamiltonian energy:                                      9.50152673078846
  Hartree energy:                                              12.21234014987992
  Exchange-correlation energy:                                 -3.68016129744942

  Total energy:                                               -12.87635121301384

 !-----------------------------------------------------------------------------!
                     Mulliken Population Analysis

 #  Atom  Element  Kind  Atomic population                           Net charge
       1     B        1          2.537646                              0.462354
       2     N        2          5.462354                             -0.462354
 # Total charge                              8.000000                 -0.000000

 !-----------------------------------------------------------------------------!

 !-----------------------------------------------------------------------------!
                           Hirshfeld Charges

  #Atom  Element  Kind  Ref Charge     Population                    Net charge
      1       B      1       3.000          2.609                         0.391
      2       N      2       5.000          5.390                        -0.390

  Total Charge                                                            0.000
 !-----------------------------------------------------------------------------!
  
 -------------------------------------------------------------------------------
 -                                                                             -
 -                          BANDSTRUCTURE CALCULATION                          -
 -                                                                             -
 -------------------------------------------------------------------------------
  
 Number of occupied molecular orbitals (MOs) = Number of occupied bands        4
 Number of unoccupied (= virtual) MOs = Number of unoccupied bands            30
 Number of Gaussian basis functions for MOs                                   34
 Number of cells considered in the DFT calculation                           215
 Number of cells for G, χ, W, Σ                                             2209
 Number of special k-points for the bandstructure                              4
 Number of k-points for the bandstructure                                   2452
  
 -------------------------------------------------------------------------------
 -                                                                             -
 -                                GW CALCULATION                               -
 -                                                                             -
 -------------------------------------------------------------------------------
  
 Input: Number of time/freq. points                                           30
 Input: ω_max for fitting Σ(iω) (eV)                                        10.0
 Input: Filter threshold for sparse tensor operations                    1.0E-11
 Input: Apply Hedin shift                                                      F
  
 Number of auxiliary Gaussian basis functions for χ, ε, W                    165
 Cutoff radius for the truncated Coulomb operator in Σ^x:                 51.1 Å
 Cutoff radius for the truncated Coulomb operator in RI metric:            7.0 Å
 Regularization parameter of RI                                          1.0E-01
 Regularization parameter of minimax grids                               1.0E-06
 Lattice sum size for V(k):                                                    3
  
 K-point mesh 1 for χ, ε, W                                          192 192   1
 K-point mesh 2 for χ, ε, W (for k-point extrapolation of W)         384 384   1
 Approximate the k-point extrapolation                                         F
 Radius of atomic orbitals                                                10.7 Å
 Radius of RI functions                                                   10.0 Å
 Number of cells for 3c integrals                                            354
 Number of cell pairs for 3c integrals                                     27500
 
 Input: Available memory per MPI process                                 48.0 GB
 Used memory per MPI process before GW run                                0.5 GB
 Memory of three-center integrals                                        42.0 GB
 Group size for tensor operations                                              1
 Number of cells ΔR                                                         1373
 Min. abs. eigenvalue of RI metric matrix M(k)                           4.8E-08
 Max. abs. eigenvalue of RI metric matrix M(k)                           1.7E+03
 Max. condition number of M(k)                                           1.7E+14
 
 SCF direct band gap (eV)                                                   4.66
 Max. SCF eigval diff. (eV)                                               337.58
 E-Range for minimax grid                                                  72.45
 Number of Padé parameters for analytic continuation:                         16
 
 Computed χ^R(iτ) for time point            1 / 30,      Execution time  229.5 s
 Computed χ^R(iτ) for time point            2 / 30,      Execution time  187.4 s
 Computed χ^R(iτ) for time point            3 / 30,      Execution time  186.4 s
 Computed χ^R(iτ) for time point            4 / 30,      Execution time  185.1 s
 Computed χ^R(iτ) for time point            5 / 30,      Execution time  185.6 s
 Computed χ^R(iτ) for time point            6 / 30,      Execution time  182.7 s
 Computed χ^R(iτ) for time point            7 / 30,      Execution time  181.2 s
 Computed χ^R(iτ) for time point            8 / 30,      Execution time  177.5 s
 Computed χ^R(iτ) for time point            9 / 30,      Execution time  176.7 s
 Computed χ^R(iτ) for time point           10 / 30,      Execution time  173.3 s
 Computed χ^R(iτ) for time point           11 / 30,      Execution time  169.7 s
 Computed χ^R(iτ) for time point           12 / 30,      Execution time  164.6 s
 Computed χ^R(iτ) for time point           13 / 30,      Execution time  159.3 s
 Computed χ^R(iτ) for time point           14 / 30,      Execution time  153.7 s
 Computed χ^R(iτ) for time point           15 / 30,      Execution time  148.4 s
 Computed χ^R(iτ) for time point           16 / 30,      Execution time  142.0 s
 Computed χ^R(iτ) for time point           17 / 30,      Execution time  134.3 s
 Computed χ^R(iτ) for time point           18 / 30,      Execution time  127.3 s
 Computed χ^R(iτ) for time point           19 / 30,      Execution time  116.4 s
 Computed χ^R(iτ) for time point           20 / 30,      Execution time  103.6 s
 Computed χ^R(iτ) for time point           21 / 30,      Execution time   90.6 s
 Computed χ^R(iτ) for time point           22 / 30,      Execution time   67.9 s
 Computed χ^R(iτ) for time point           23 / 30,      Execution time   51.7 s
 Computed χ^R(iτ) for time point           24 / 30,      Execution time   20.3 s
 Computed χ^R(iτ) for time point           25 / 30,      Execution time   16.3 s
 Computed χ^R(iτ) for time point           26 / 30,      Execution time   17.1 s
 Computed χ^R(iτ) for time point           27 / 30,      Execution time   17.0 s
 Computed χ^R(iτ) for time point           28 / 30,      Execution time   16.3 s
 Computed χ^R(iτ) for time point           29 / 30,      Execution time   16.1 s
 Computed χ^R(iτ) for time point           30 / 30,      Execution time   16.7 s
 Computed V_PQ(k),                                       Execution time13215.5 s
 
 Computed W_PQ(k,iω) for all k and τ,                    Execution time13968.8 s
 
 Computed Σ^x,                                           Execution time  229.4 s
 
 Computed Σ^c(iτ) for time point            1 / 30,      Execution time  247.4 s
 Computed Σ^c(iτ) for time point            2 / 30,      Execution time  194.4 s
 Computed Σ^c(iτ) for time point            3 / 30,      Execution time  192.4 s
 Computed Σ^c(iτ) for time point            4 / 30,      Execution time  191.6 s
 Computed Σ^c(iτ) for time point            5 / 30,      Execution time  189.9 s
 Computed Σ^c(iτ) for time point            6 / 30,      Execution time  188.5 s
 Computed Σ^c(iτ) for time point            7 / 30,      Execution time  187.7 s
 Computed Σ^c(iτ) for time point            8 / 30,      Execution time  184.9 s
 Computed Σ^c(iτ) for time point            9 / 30,      Execution time  184.4 s
 Computed Σ^c(iτ) for time point           10 / 30,      Execution time  180.0 s
 Computed Σ^c(iτ) for time point           11 / 30,      Execution time  177.1 s
 Computed Σ^c(iτ) for time point           12 / 30,      Execution time  175.1 s
 Computed Σ^c(iτ) for time point           13 / 30,      Execution time  171.2 s
 Computed Σ^c(iτ) for time point           14 / 30,      Execution time  167.2 s
 Computed Σ^c(iτ) for time point           15 / 30,      Execution time  162.6 s
 Computed Σ^c(iτ) for time point           16 / 30,      Execution time  159.5 s
 Computed Σ^c(iτ) for time point           17 / 30,      Execution time  153.1 s
 Computed Σ^c(iτ) for time point           18 / 30,      Execution time  143.4 s
 Computed Σ^c(iτ) for time point           19 / 30,      Execution time  134.4 s
 Computed Σ^c(iτ) for time point           20 / 30,      Execution time  112.5 s
 Computed Σ^c(iτ) for time point           21 / 30,      Execution time   89.8 s
 Computed Σ^c(iτ) for time point           22 / 30,      Execution time   24.1 s
 Computed Σ^c(iτ) for time point           23 / 30,      Execution time   21.9 s
 Computed Σ^c(iτ) for time point           24 / 30,      Execution time   20.5 s
 Computed Σ^c(iτ) for time point           25 / 30,      Execution time   20.4 s
 Computed Σ^c(iτ) for time point           26 / 30,      Execution time   20.3 s
 Computed Σ^c(iτ) for time point           27 / 30,      Execution time   20.1 s
 Computed Σ^c(iτ) for time point           28 / 30,      Execution time   20.1 s
 Computed Σ^c(iτ) for time point           29 / 30,      Execution time   20.3 s
 Computed Σ^c(iτ) for time point           30 / 30,      Execution time   20.4 s

 
 SCF valence band maximum (eV):                                           -3.780
 SCF conduction band minimum (eV):                                         0.880
 SCF indirect band gap (eV):                                               4.660
 SCF direct band gap (eV):                                                 4.660
 
 G0W0 valence band maximum (eV):                                          -4.725
 G0W0 conduction band minimum (eV):                                        2.266
 G0W0 indirect band gap (eV):                                              6.992
 G0W0 direct band gap (eV):                                                7.302
 
 Hartree-Fock with SCF orbitals valence band maximum (eV):                -6.837
 Hartree-Fock with SCF orbitals conduction band minimum (eV)               5.378
 Hartree-Fock with SCF orbitals indirect band gap (eV):                   12.214
 Hartree-Fock with SCF orbitals direct band gap (eV):                     13.087

 ENERGY| Total FORCE_EVAL ( QS ) energy [hartree]            -12.876351209410926

 -------------------------------------------------------------------------------
 -                                                                             -
 -                                DBCSR STATISTICS                             -
 -                                                                             -
 -------------------------------------------------------------------------------
 COUNTER                                    TOTAL       BLAS       SMM       ACC
 flops inhomo. stacks                           0       0.0%      0.0%      0.0%
 flops total                         0.000000E+00       0.0%      0.0%      0.0%
 flops max/rank                      0.000000E+00       0.0%      0.0%      0.0%
 matmuls inhomo. stacks                         0       0.0%      0.0%      0.0%
 matmuls total                                  0       0.0%      0.0%      0.0%
 number of processed stacks                     0       0.0%      0.0%      0.0%
 average stack size                                     0.0       0.0       0.0
 marketing flops                     0.000000E+00
 -------------------------------------------------------------------------------
 -                                                                             -
 -                      DBCSR MESSAGE PASSING PERFORMANCE                      -
 -                                                                             -
 -------------------------------------------------------------------------------
 ROUTINE             CALLS      AVE VOLUME [Bytes]
 MP_Bcast                1                     12.
 MP_Allreduce           19                     21.
 MP_Alltoall      12921325                 177371.
 -------------------------------------------------------------------------------

 -------------------------------------------------------------------------------
 -                                                                             -
 -                                DBM STATISTICS                               -
 -                                                                             -
 -------------------------------------------------------------------------------
    M  x    N  x    K                                          COUNT     PERCENT
    ?  x    ?  x    ?                                     6004733553      49.75%
   ??  x   ??  x >999                                      665034241       5.51%
  ???  x  ???  x  ???                                      573430286       4.75%
  ???  x   ??  x  ???                                      499175657       4.14%
   ??  x  ???  x  ???                                      311825127       2.58%
   ??  x   ??  x  ???                                      251834078       2.09%
  ???  x  ???  x   ??                                      149213921       1.24%
  ???  x   ??  x   ??                                      146349022       1.21%
 >999  x   ??  x   ??                                     3467793011      28.73%
 -------------------------------------------------------------------------------
 Memory consumption                Number of allocations  Used [MiB]  Size [MiB]
 Host                                          271369582           0           0
 -------------------------------------------------------------------------------

 -------------------------------------------------------------------------------
 -                                                                             -
 -                                GRID STATISTICS                              -
 -                                                                             -
 -------------------------------------------------------------------------------
 LP    KERNEL             BACKEND                              COUNT     PERCENT
 4     integrate general  CPU                                 188881      50.45%
 4     collocate general  CPU                                 183975      49.14%
 0     collocate general  CPU                                   1024       0.27%
 0     integrate general  CPU                                    512       0.14%
 -------------------------------------------------------------------------------

 MEMORY| Estimated peak process memory [MiB]                               40764

 -------------------------------------------------------------------------------
 ----                             MULTIGRID INFO                            ----
 -------------------------------------------------------------------------------
 count for grid        1:        2179747          cutoff [a.u.]          500.00
 count for grid        2:        1682454          cutoff [a.u.]          166.67
 count for grid        3:         937976          cutoff [a.u.]           55.56
 count for grid        4:         334608          cutoff [a.u.]           18.52
 total gridlevel count  :        5134785

 -------------------------------------------------------------------------------
 -                                                                             -
 -                         MESSAGE PASSING PERFORMANCE                         -
 -                                                                             -
 -------------------------------------------------------------------------------

 ROUTINE             CALLS      AVE VOLUME [Bytes]
 MP_Group         33368953
 MP_Bcast         23822893                    238.
 MP_Allreduce     61757696                  12960.
 MP_Sync          57691898
 MP_Alltoall      26337576                    764.
 MP_SendRecv         57375                   2336.
 MP_ISendRecv        58905                   2336.
 MP_Wait           3919820
 MP_comm_split    20753451
 MP_ISend        129676524                   8852.
 MP_IRecv         14619490                  13712.
 -------------------------------------------------------------------------------


 -------------------------------------------------------------------------------
 -                                                                             -
 -                           R E F E R E N C E S                               -
 -                                                                             -
 -------------------------------------------------------------------------------
 
 CP2K version 2025.2, the CP2K developers group (2025).
 CP2K is freely available from https://www.cp2k.org/ .
 
 M. Graml, K. Zollner, D. Hernangómez-Pérez, P. E. Faria Junior, J. Wilhelm.
 J. Chem. Theory Comput. 20, 2202-2208 (2024).
 Low-scaling GW algorithm applied to twisted transition-metal dichalcogenide 
 heterobilayers.
 https://doi.org/10.1021/acs.jctc.3c01230

 T. D. Kuehne, M. Iannuzzi, M. Del Ben, V. V. Rybkin, P. Seewald, F. Stein, T. 
 Laino, R. Z. Khaliullin, O. Schuett, F. Schiffmann, D. Golze, J. Wilhelm, S. 
 Chulkov, M. H. Bani-Hashemian, V. Weber, U. Borstnik, M. Taillefumier, A. S. 
 Jakobovits, A. Lazzaro, H. Pabst, T. Mueller, R. Schade, M. Guidon, S. 
 Andermatt, N. Holmberg, G. K. Schenter, A. Hehn, A. Bussy, F. Belleflamme, G. 
 Tabacchi, A. Gloess, M. Lass, I. Bethune, C. J. Mundy, C. Plessl, M. Watkins, 
 J. VandeVondele, M. Krack, J. Hutter.
 J. Chem. Phys. 152, 194103 (2020).
 CP2K: An electronic structure and molecular dynamics software package - 
 Quickstep: Efficient and accurate electronic structure calculations.
 https://doi.org/10.1063/5.0007045

 A. Togo, I. Tanaka.
 arXiv, 1808.01590 (2018).
 Spglib : a software library for crystal symmetry search.

 O. Schuett, P. Messmer, J. Hutter, J. VandeVondele.
 Electronic Structure Calculations on Graphics Processing Units, 173-190 (2016).
 GPU-Accelerated Sparse Matrix-Matrix Multiplication for Linear Scaling Density 
 Functional Theory.
 https://doi.org/10.1002/9781118670712.ch8

 A. Heinecke, G. Henry, M. Hutchinson, H. Pabst.
 Proceedings of Intl. Supercomputing Conference, 981-991 (2016).
 LIBXSMM: Accelerating Small Matrix Multiplications by Runtime Code Generation.
 https://doi.org/10.1109/SC.2016.83

 J. Hutter, M. Iannuzzi, F. Schiffmann, J. VandeVondele.
 WIREs Comput Mol Sci. 4, 15-25 (2014).
 CP2K: atomistic simulations of condensed matter systems.
 https://doi.org/10.1002/wcms.1159

 U. Borstnik, J. VandeVondele, V. Weber, J. Hutter.
 Parallel Comput. 40, 47-58 (2014).
 Sparse matrix multiplication: The distributed block-compressed sparse row 
 library.
 https://doi.org/10.1016/j.parco.2014.03.012

 A. Marek, V. Blum, R. Johanni, V. Havu, B. Lang, T. Auckenthaler, A. Heinecke, 
 H. Bungartz, H. Lederer.
 J. Phys. Condens. Matter 26, 213201 (2014).
 The ELPA library: scalable parallel eigenvalue solutions for electronic 
 structure theory and computational science.
 https://doi.org/10.1088/0953-8984/26/21/213201

 J. VandeVondele, J. Hutter.
 J. Chem. Phys. 127, 114105 (2007).
 Gaussian basis sets for accurate calculations on molecular systems in gas and 
 condensed phases.
 https://doi.org/10.1063/1.2770708

 J. VandeVondele, M. Krack, F. Mohamed, M. Parrinello, T. Chassaing, J. Hutter.
 Comput. Phys. Commun. 167, 103-128 (2005).
 QUICKSTEP: Fast and accurate density functional calculations using a mixed 
 Gaussian and plane waves approach.
 https://doi.org/10.1016/j.cpc.2004.12.014

 M. Krack.
 Theor. Chem. Acc. 114, 145-152 (2005).
 Pseudopotentials for H to Kr optimized for gradient-corrected 
 exchange-correlation functionals.
 https://doi.org/10.1007/s00214-005-0655-y

 M. Frigo, S. G. Johnson.
 Proc. IEEE 93, 216-231 (2005).
 The design and implementation of FFTW3.
 https://doi.org/10.1109/JPROC.2004.840301

 C. Hartwigsen, S. Goedecker, J. Hutter.
 Phys. Rev. B 58, 3641-3662 (1998).
 Relativistic separable dual-space Gaussian pseudopotentials from H to Rn.
 https://doi.org/10.1103/PhysRevB.58.3641

 G. Lippert, J. Hutter, M. Parrinello.
 Mol. Phys. 92, 477-487 (1997).
 A hybrid Gaussian and plane wave density functional scheme.
 https://doi.org/10.1080/002689797170220

 S. Goedecker, M. Teter, J. Hutter.
 Phys. Rev. B 54, 1703-1710 (1996).
 Separable dual-space Gaussian pseudopotentials.
 https://doi.org/10.1103/PhysRevB.54.1703

 J. P. Perdew, K. Burke, M. Ernzerhof.
 Phys. Rev. Lett. 77, 3865-3868 (1996).
 Generalized gradient approximation made simple.
 https://doi.org/10.1103/PhysRevLett.77.3865


 -------------------------------------------------------------------------------
 -                                                                             -
 -                                T I M I N G                                  -
 -                                                                             -
 -------------------------------------------------------------------------------
 SUBROUTINE                       CALLS  ASD         SELF TIME        TOTAL TIME
                                MAXIMUM       AVERAGE  MAXIMUM  AVERAGE  MAXIMUM
 CP2K                                 1  1.0     0.01     0.02 36085.04 36086.94
 qs_energies                          1  2.0     0.00     0.00 36084.36 36086.26
 qs_energies_properties               1  3.0     0.00     0.00 35558.15 35560.02
 post_scf_bandstructure               1  4.0     0.00     0.00 35558.15 35560.02
 gw                                   1  5.0     0.00     0.00 35498.80 35500.67
 gw_calc_small_cell_full_kp           1  6.0     0.01     0.01 35398.62 35400.49
 compute_W_real_space                 1  7.0     9.99    11.50 27184.20 27185.65
 compute_Minv_and_Vsqrt               1  8.0     0.09     0.10 13215.36 13216.40
 build_2c_coulomb_matrix_kp_sma       2  9.0    16.08    68.78 13184.51 13185.21
 mp_sum_dm3                        1069  9.0 12994.89 12995.92 12994.89 12995.92
 fm_to_local_array                  934  8.1    90.65   103.93 12929.64 12931.00
 build_2c_coulomb_matrix_kp_sma 1474560 10.0 11023.83 11964.92 11023.83 11964.92
 mp_sync                        ******* 12.5  3735.70  6613.61  3735.70  6613.61
 dbt_total                      *******  9.6    15.76    20.70  3393.15  5242.21
 dbt_contract                   6044800 10.4    27.65    35.68  2867.03  4353.38
 dbt_tas_multiply               7549716 12.9     4.03     5.07  2618.51  4057.89
 dbt_tas_total                  7549716 13.9   176.73   261.33  2616.01  4054.96
 compute_Sigma_c                      1  7.0     0.00     0.00  3775.92  3776.12
 compute_chi                          1  7.0     0.06     0.08  3637.61  3637.88
 contract_M_occ_vir_to_chi           84  8.0    53.34    84.62   869.80  1802.15
 contract_to_Sigma                  127  8.0    27.47    38.73  1114.83  1772.63
 dbt_tas_dbm                    7549716 14.9     3.69     4.47   880.17  1659.39
 dbm_multiply                   7549716 16.9   872.19  1649.43   872.19  1649.43
 dbt_tas_estimate_result_nze    3774858 13.4   226.28   296.53   997.59  1440.06
 contract_W                          66  8.0     7.30     8.43   891.96  1372.38
 contract_to_Sigma_3c_x_G       1656168  9.0     1.37     1.92   703.38  1244.83
 G_occ_vir                          121  8.0     0.43     0.53  1116.74  1129.72
 dbcsr_complete_redistribute    1139600  9.6    13.34    24.17   834.62  1089.20
 dbt_copy                       8975351 10.8    25.52    34.50   605.71  1018.76
 G_times_3c                       22048  8.0    10.15    11.53   698.92   990.81
 dbt_tas_mm_2                   2943614 15.9     1.42     2.35   391.55   942.38
 parallel_gemm_cfm               592640  9.0     0.20     0.29   838.63   870.22
 parallel_gemm_cfm_cosma         592640 10.0   838.43   870.03   838.43   870.03
 mp_alltoall_i22                2128425 10.0   569.02   832.56   569.02   832.56
 dbt_reshape                    5917174 11.7   350.73   614.61   460.08   825.13
 fm_to_local_tensor              335768  9.0     2.95     4.42   788.89   788.98
 mp_sum_dm                      1474633 10.0   716.70   775.72   716.70   775.72
 copy_dbcsr_to_fm                633121  8.0     2.02     2.72   688.81   712.13
 contract_to_Sigma_contract       18785  9.0     8.96    12.23   374.13   637.43
 reshape_mm_small               7549716 14.9   246.19   294.02   471.12   595.16
 mult_W_with_Minv                    30  8.0     0.97     1.10   575.81   575.84
 compute_QP_energies                  1  7.0     0.08     0.16   570.68   570.77
 copy_fm_to_dbcsr                506479  9.3     0.74     1.03   325.83   570.63
 trafo_to_k_and_nn               149572  8.0     0.33     0.40   570.07   570.14
 global_matrix_to_local_matrix   335768 10.0     3.13     6.54   470.48   564.84
 get_V_tr_R                          34  9.0     0.15     0.19   548.50   548.98
 dbt_tas_mm_3T                  3482138 16.1     1.21     1.68   307.17   535.34
 scf_env_do_scf                       1  3.0     0.00     0.00   525.78   525.81
 scf_env_do_scf_inner_loop           74  4.0     0.01     0.01   525.78   525.81
 qs_scf_new_mos_kp                   74  5.0     0.00     0.00   520.08   520.16
 do_general_diag_kp                  74  6.0     0.50     0.56   520.08   520.16
 add_V_L                         737280 10.0     6.51   508.90     6.51   508.90
 get_t_3c_int                   4450074  9.3    10.78    17.19   279.02   461.62
 add_ikp_to_rs                  *******  3.3   421.22   452.85   421.22   452.85
 add_rs_to_ikp                  ******* -2.1   404.74   446.90   404.74   446.90
 send_data                       335768 11.0     0.13     0.18   340.94   436.90
 communicate_buffer              335768 12.0     1.31    33.66   340.81   436.78
 mp_waitall_1                   3461362 11.0   338.37   436.44   338.37   436.44
 add_ikp_to_all_rs                11079  8.0     6.34     6.82   375.63   406.13
 trafo_rs_to_ikp                  12078  8.1     6.51     6.90   380.27   403.43
 local_dbt_to_global_fm              91  8.0     0.22     0.27   392.33   392.35
 dbt_tas_reshape                8497228 15.4    28.02    41.00   235.46   355.61
 mp_cart_sub                    1266321 10.0   348.76   348.85   348.76   348.85
 dbcsr_desymmetrize_deep         988825  8.3     7.12     8.36   264.81   289.86
 dbt_tas_mm_1N                  1765612 15.5     0.66     0.87   177.09   287.39
 dbt_tas_create_split           ******* 15.9     7.10     8.45   215.92   257.16
 dbt_tas_create_split_rows_or_c ******* 16.9    26.56    31.44   208.83   248.75
 dbt_remap                       600977 11.0    32.24    37.64   157.43   241.73
 reshape_mm_compatible          7549716 14.9    32.65    40.69   200.50   238.32
 compute_Sigma_x                      1  7.0     0.01     0.01   230.21   230.27
 fm_MWM_R_t_to_local_tensor_W_R      30  8.0     0.03     0.05   221.36   221.38
 dbt_tas_replicate              7549716 14.9    73.46   119.88   142.98   214.77
 mp_cart_create                 ******* 16.5   163.17   196.31   174.75   209.59
 convert_to_new_pgrid           ******* 14.9    38.27    70.21   114.68   194.25
 dbt_tas_distribution_new       ******* 15.6    77.33    92.04   154.76   180.57
 fm_add_ikp_to_rs                278784  9.0   121.40   127.00   173.35   179.93
 dbt_communicate_buffer         5917174 12.7    78.18   179.24    78.18   179.24
 change_split                   ******* 15.4    10.99    14.82   130.56   161.86
 dbt_tas_reshape_buffer_fill    8497228 16.4    93.44   152.69    93.44   152.69
 dbm_reserve_blocks             ******* 16.6    88.44   150.50    88.44   150.50
 dbt_tas_reserve_blocks_index   ******* 15.8    10.59    14.49    83.70   135.58
 dbm_copy                       ******* 15.9    76.41   134.98    76.41   134.98
 local_dbt_to_global_mat         201019  9.0     0.56     0.83   102.04   133.78
 fm_trafo_rs_to_ikp              149572  9.0    83.09    99.50   114.07   130.91
 cp_fm_start_copy_general        511488  7.3     1.90     3.31   108.84   111.73
 dbt_tas_reshape_buffer_obtain  8497228 16.4    50.57    74.67    72.79   109.41
 get_data                        335768 11.0     7.68   106.24     7.95   106.60
 mp_sum_i                       6937979 15.7   100.17   103.63   100.17   103.63
 send_sizes_1                    335768 11.0     0.13     0.26    99.45   102.91
 dbt_tas_create_new             ******* 15.2    59.47   101.87    59.47   101.87
 create_and_init_bs_env_for_gw        1  6.0     0.00     0.01   100.18   100.18
 mp_isend_dv                    ******* 10.7     2.38    98.11     2.38    98.11
 dbt_tas_merge                  2943614 14.9    32.61    70.46    43.80    95.06
 get_Minv_Vtr_Minv_R                  1  8.0     0.05     0.06    88.67    88.87
 dbt_tas_copy                   3144044 12.3    44.13    58.74    60.47    87.68
 power                            22959  8.0     5.58     7.61    77.50    86.41
 mp_allgather_i                 1022976  8.3    79.71    85.59    79.71    85.59
 mp_comm_dup                    ******* 18.4    61.16    77.28    67.57    84.71
 kpoint_density_transform            74  7.0     0.17     0.22    79.53    79.56
 diag_complex                     22959  9.0    71.91    79.47    71.91    79.47
 dbt_copy_nocomm                 989998 11.0    32.57    58.76    40.15    75.57
 dbt_tas_reserve_blocks_templat 9949030 14.1    15.37    27.53    43.87    73.89
 local_matrix_to_global_matrix   201019 10.0     0.25     0.29    34.18    68.03
 dbm_add                        7549716 14.9    40.62    65.92    40.62    65.92
 dbt_reserve_blocks_index       7174275 13.6     3.65     4.57    37.61    61.92
 mp_alltoall_d11v               6385427 10.5    20.96    61.40    20.96    61.40
 add_R                          *******  9.3    37.00    41.23    54.54    61.14
 mp_comm_free                   ******* 15.5    47.32    60.91    47.32    60.91
 dbt_permute_index              ******* 12.1    43.98    52.91    49.06    58.87
 dbt_reserve_blocks_index_array 6775672 12.8     2.64     3.57    34.46    58.30
 mp_comm_split_direct           ******* 17.9    44.18    53.43    47.63    57.10
 mp_sum_dv                       164357  8.9    46.25    52.90    46.25    52.90
 dbcsr_finalize                 4333624 11.0     6.64    11.14    30.98    49.72
 compute_3c_integrals                 1  7.0     0.08     0.08    49.72    49.72
 build_3c_integrals                   1  8.0    28.94    43.57    34.38    49.13
 dbt_align_index                ******* 11.4     7.17     8.88    40.19    48.98
 dbt_tas_communicate_buffer     ******* 17.2    25.15    47.94    25.15    47.94
 create_and_init_bs_env               1  5.0     0.00     0.00    44.93    44.93
 compute_cfm_mo_coeff_kp_and_ei       1  6.0     0.00     0.00    44.92    44.93
 dbt_tas_mp_comm                4248614 13.1     3.68     4.27    26.87    44.70
 dbt_create_3c_R1_R2                 62  8.0     4.41     4.63    29.47    44.17
 dbt_tas_reshape_communicate_bu 8497228 16.4     3.69     5.19    22.05    43.21
 dbt_create_template            8133922  9.0    26.48    41.73    26.48    41.73
 mp_alltoall_i11v               4407625 10.3    35.45    41.60    35.45    41.60
 dbt_destroy                    ******* 10.5    29.64    37.64    32.35    41.26
 reshape_mm_template            1201954 15.5    22.23    25.92    31.79    39.60
 dbm_filter                     ******* 14.8    22.65    39.56    22.65    39.56
 dbt_distribution_new_expert    1873500 12.1     5.53     7.43    28.93    34.05
 is_cell_in_index_to_cell       ******* -7.7    30.32    33.32    30.32    33.32
 comm_data                       201019 11.0     0.25     1.93    15.24    31.93
 cp_cfm_geeig_canon                2452  7.0     0.01     0.01    31.26    31.35
 heuristic_RI_regularization          1  7.0     0.00     0.00    29.34    29.34
 cp_cfm_heevd                      5570  8.0     0.00     0.00    29.07    29.28
 cp_cfm_heevd_base                 5570  9.0    29.07    29.28    29.07    29.28
 mp_waitall_2                    402038 12.0    14.52    29.11    14.52    29.11
 mp_alltoall_i                  ******* 15.2    24.95    27.45    24.95    27.45
 dbcsr_merge_all                1665607 11.7    14.50    21.98    17.36    27.01
 dbcsr_filter_anytype           1501433 11.0     2.98     4.28    13.59    26.81
 destroy_t_2d                        62  8.0     7.77    10.37    22.59    25.63
 dbt_tas_reshape_get_coord      8497228 16.4    13.16    25.20    13.16    25.20
 mp_comm_size                   ******* ****    18.72    22.46    18.72    22.46
 dbt_create_matrix               335768 10.0     1.01     1.22    16.91    22.23
 rsmat_to_kp                       7356  7.3     0.03     0.04    21.71    21.98
 mp_cart_get                    *******  6.5    18.61    21.97    18.61    21.97
 dbt_create_new                  936750 11.6     3.53     5.50    16.89    21.45
 dbm_scale                      9460239 14.5    12.11    21.21    12.11    21.21
 set_blocks                      201019 11.0     2.55    13.06     6.13    20.54
 mp_bcast_im                    1022976  8.3    16.25    20.48    16.25    20.48
 rskp_transform                  177852  7.1     0.21    18.12     0.21    18.12
 dbt_reserve_blocks_template     989998 12.0     1.29     2.84     7.58    17.08
 trafo_V_xc_R_to_kp                   1  7.0     0.01     0.01    15.53    15.55
 mp_comm_rank                   ******* ****    13.00    15.29    13.00    15.29
 dos_pdos_ldos                        1  5.0     0.00     0.00    14.43    14.44
 compute_proj_mo_on_kind           2452  6.0     0.01     0.02    13.78    13.79
 send_sizes_2                    335768 11.0     0.11     0.13    12.69    13.40
 mp_bcast_iv                    2046016  8.3    10.38    12.18    10.38    12.18
 dbt_pgrid_create_expert        1873503 13.1     1.34     1.89     8.71    11.49
 dbt_tas_replicate_communicate_ 5192812 15.9     2.15     3.27     6.11    10.09
 mp_isend_im2                   ******* 12.9     0.17    10.06     0.17    10.06
 dbcsr_create_new               3666796  9.9     5.72     8.39     6.94     9.95
 dbt_nd_mp_comm                  936745 11.6     0.94     1.29     6.82     9.69
 transform_dmat                   85248  8.0     0.09     8.70     0.09     8.70
 dbt_tas_merge_communicate_buff 2943614 15.9     0.98     1.78     3.80     8.30
 comm_size                       201019 11.0     0.11     0.12     7.21     7.91
 copy_fm_to_dbcsr_bc             506479 10.3     1.75     2.69     5.33     7.67
 build_2c_integrals                  34 10.0     0.08     3.69     0.39     7.61
 dbcsr_iterator_start           9477059 10.9     4.67     6.23     5.50     7.39
 fill_buffer                     201019 11.0     3.78     6.73     3.94     6.90
 dbcsr_work_destroy_all         2654432 11.1     3.07     4.97     4.15     6.87
 dbcsr_work_create              2654432 10.2     3.34     4.91     4.58     6.82
 mp_sum_l                       ******* 15.0     4.95     6.44     4.95     6.44
 dbt_copy_matrix_to_tensor       335768 10.0     1.65     2.62     4.32     6.28
 reserve_blocks                  335768 11.0     0.50     0.65     4.04     6.25
 dbt_tas_reshape_alltoall       8497228 16.4     2.94     3.78     4.69     6.18
 dbt_create_2c_R                     98  8.0     2.70     4.75     3.53     5.79
 dbcsr_iterator_stop            9477059 10.9     3.15     4.29     3.91     5.17
 dbcsr_data_release             ******* 11.6     3.31     4.94     3.31     4.94
 alloc_block_3c                       1  9.0     0.10     0.12     4.70     4.89
 dbcsr_destroy                  3433312  9.6     2.29     3.12     3.56     4.80
 hybrid_alltoall_any             988825  9.3     1.46     1.60     2.86     4.55
 dbcsr_data_new                 ******* 11.1     2.73     4.40     2.73     4.40
 dbcsr_reserve_blocks           1336052 12.2     1.44     3.28     1.66     3.65
 setup_parallelization_Delta_R        1  7.0     0.00     0.00     3.63     3.63
 dbt_tas_replicate_alltoall     5192812 15.9     1.65     2.31     2.55     3.62
 compute_n_tensor_ops_Delta_R         1  8.0     0.87     1.58     3.62     3.62
 -------------------------------------------------------------------------------

 The number of warnings for this run is : 1
 
 -------------------------------------------------------------------------------
  **** **** ******  **  PROGRAM ENDED AT                 2025-10-16 00:53:20.394
 ***** ** ***  *** **   PROGRAM RAN ON                                   lcn1510
 **    ****   ******    PROGRAM RAN BY                                  metdyn02
 ***** **    ** ** **   PROGRAM PROCESS ID                               2618564
  **** **  *******  **  PROGRAM STOPPED IN /scratch/hpc-prf-metdyn/metdyn02_Remi
                                           /03_hBN/TZVP-MOLOPT
