 DBCSR| CPU Multiplication driver                                           XSMM (U)
 DBCSR| Multrec recursion limit                                              512 (U)
 DBCSR| Multiplication stack size                                           1000 (D)
 DBCSR| Maximum elements for images                                    UNLIMITED (U)
 DBCSR| Multiplicative factor virtual images                                   1 (U)
 DBCSR| Use multiplication densification                                       T (D)
 DBCSR| Multiplication size stacks                                             3 (U)
 DBCSR| Use memory pool for CPU allocation                                     F (U)
 DBCSR| Number of 3D layers                                               SINGLE (U)
 DBCSR| Use MPI memory allocation                                              F (U)
 DBCSR| Use RMA algorithm                                                      F (U)
 DBCSR| Use Communication thread                                               T (U)
 DBCSR| Communication thread load                                             75 (D)
 DBCSR| MPI: My process id                                                     0
 DBCSR| MPI: Number of processes                                             128
 DBCSR| OMP: Current number of threads                                         4
 DBCSR| OMP: Max number of threads                                             4
 DBCSR| Split modifier for TAS multiplication algorithm                  1.0E+00 (U)


  **** **** ******  **  PROGRAM STARTED AT               2025-10-03 07:44:05.575
 ***** ** ***  *** **   PROGRAM STARTED ON                n2lcn0138.ab2021.local
 **    ****   ******    PROGRAM STARTED BY                              metdyn02
 ***** **    ** ** **   PROGRAM PROCESS ID                                 75198
  **** **  *******  **  PROGRAM STARTED IN /scratch/hpc-prf-metdyn/metdyn02_Remi
                                           /14_hBN/aug-SZV-MOLOPT/GAPW/filter/1e
                                           -14

 CP2K| version string:                 CP2K version 2025.2 (Development Version)
 CP2K| source code revision number:                                  git:8d80afc
 CP2K| cp2kflags: omp libint fftw3 libxc libgrpp elpa parallel scalapack mpi_f08
 CP2K|             cosma xsmm plumed2 spglib libvori libbqb libvdwxc hdf5
 CP2K| is freely available from                            https://www.cp2k.org/
 CP2K| Program compiled at                         Mon Sep  8 11:02:08 CEST 2025
 CP2K| Program compiled on                                              n2login1
 CP2K| Program compiled for                                                local
 CP2K| Data directory path    /opt/software/pc2/EB-SW/software/CP2K/2025.2-foss-
 CP2K| Input file name                                                    GW.inp

 GLOBAL| Force Environment number                                              1
 GLOBAL| Basis set file name                                        BASIS_MOLOPT
 GLOBAL| Potential file name                                  GTH_SOC_POTENTIALS
 GLOBAL| MM Potential file name                                     MM_POTENTIAL
 GLOBAL| Coordinate file name                                      __STD_INPUT__
 GLOBAL| Method name                                                        CP2K
 GLOBAL| Project name                                                        hBN
 GLOBAL| Run type                                                         ENERGY
 GLOBAL| FFT library                                                       FFTW3
 GLOBAL| Diagonalization library                                            ELPA
 GLOBAL| Cholesky decomposition library                                ScaLAPACK
 GLOBAL| DGEMM library                                                      BLAS
 GLOBAL| Minimum number of eigenvectors for ELPA usage                        16
 GLOBAL| Orthonormality check for eigenvectors                          DISABLED
 GLOBAL| Matrix multiplication library                                     COSMA
 GLOBAL| All-to-all communication in single precision                          F
 GLOBAL| FFTs using library dependent lengths                                  F
 GLOBAL| Grid backend                                                       AUTO
 GLOBAL| Global print level                                               MEDIUM
 GLOBAL| MPI I/O enabled                                                       T
 GLOBAL| Total number of message passing processes                           128
 GLOBAL| Number of threads for this process                                    4
 GLOBAL| This output is from process                                           0
 GLOBAL| OpenMP stack size per thread (OMP_STACKSIZE)                    default
 GLOBAL| CPU model name                          AMD EPYC 7763 64-Core Processor
 GLOBAL| CPUID                                                              1002

 MEMORY| system memory details [Kb]
 MEMORY|                        rank 0           min           max       average
 MEMORY| MemTotal           1056620492    1056620456    1056620516    1056620490
 MEMORY| MemFree            1024517256    1023118724    1026259184    1024829194
 MEMORY| Buffers                 59244         59244        197612        104856
 MEMORY| Cached               17961108      15102828      17961108      16543053
 MEMORY| Slab                  2653208       2653208       5865288       4385674
 MEMORY| SReclaimable           788540        788540       2429460       1714502
 MEMORY| MemLikelyFree      1043326148    1042718712    1043850076    1043191605


 *** Fundamental physical constants (SI units) ***

 *** Literature: B. J. Mohr and B. N. Taylor,
 ***             CODATA recommended values of the fundamental physical
 ***             constants: 2006, Web Version 5.1
 ***             http://physics.nist.gov/constants

 Speed of light in vacuum [m/s]                             2.99792458000000E+08
 Magnetic constant or permeability of vacuum [N/A**2]       1.25663706143592E-06
 Electric constant or permittivity of vacuum [F/m]          8.85418781762039E-12
 Planck constant (h) [J*s]                                  6.62606896000000E-34
 Planck constant (h-bar) [J*s]                              1.05457162825177E-34
 Elementary charge [C]                                      1.60217648700000E-19
 Electron mass [kg]                                         9.10938215000000E-31
 Electron g factor [ ]                                     -2.00231930436220E+00
 Proton mass [kg]                                           1.67262163700000E-27
 Fine-structure constant                                    7.29735253760000E-03
 Rydberg constant [1/m]                                     1.09737315685270E+07
 Avogadro constant [1/mol]                                  6.02214179000000E+23
 Boltzmann constant [J/K]                                   1.38065040000000E-23
 Atomic mass unit [kg]                                      1.66053878200000E-27
 Bohr radius [m]                                            5.29177208590000E-11

 *** Conversion factors ***

 [u] -> [a.u.]                                              1.82288848426455E+03
 [Angstrom] -> [Bohr] = [a.u.]                              1.88972613288564E+00
 [a.u.] = [Bohr] -> [Angstrom]                              5.29177208590000E-01
 [a.u.] -> [s]                                              2.41888432650478E-17
 [a.u.] -> [fs]                                             2.41888432650478E-02
 [a.u.] -> [J]                                              4.35974393937059E-18
 [a.u.] -> [N]                                              8.23872205491840E-08
 [a.u.] -> [K]                                              3.15774647902944E+05
 [a.u.] -> [kJ/mol]                                         2.62549961709828E+03
 [a.u.] -> [kcal/mol]                                       6.27509468713739E+02
 [a.u.] -> [Pa]                                             2.94210107994716E+13
 [a.u.] -> [bar]                                            2.94210107994716E+08
 [a.u.] -> [atm]                                            2.90362800883016E+08
 [a.u.] -> [eV]                                             2.72113838565563E+01
 [a.u.] -> [Hz]                                             6.57968392072181E+15
 [a.u.] -> [1/cm] (wave numbers)                            2.19474631370540E+05
 [a.u./Bohr**2] -> [1/cm]                                   5.14048714338585E+03
 

 CELL_TOP| Volume [angstrom^3]:                                        81.840700
 CELL_TOP| Vector a [angstrom     2.510     0.000     0.000   |a| =     2.510000
 CELL_TOP| Vector b [angstrom    -1.255     2.174     0.000   |b| =     2.510000
 CELL_TOP| Vector c [angstrom     0.000     0.000    15.000   |c| =    15.000000
 CELL_TOP| Angle (b,c), alpha [degree]:                                90.000000
 CELL_TOP| Angle (a,c), beta  [degree]:                                90.000000
 CELL_TOP| Angle (a,b), gamma [degree]:                               120.000000
 CELL_TOP| Numerically orthorhombic:                                          NO
 CELL_TOP| Periodicity                                                        XY

 GENERATE|  Preliminary Number of Bonds generated:                             0
 GENERATE|  Achieved consistency in connectivity generation.

 CELL| Volume [angstrom^3]:                                            81.840700
 CELL| Vector a [angstrom]:       2.510     0.000     0.000   |a| =     2.510000
 CELL| Vector b [angstrom]:      -1.255     2.174     0.000   |b| =     2.510000
 CELL| Vector c [angstrom]:       0.000     0.000    15.000   |c| =    15.000000
 CELL| Angle (b,c), alpha [degree]:                                    90.000000
 CELL| Angle (a,c), beta  [degree]:                                    90.000000
 CELL| Angle (a,b), gamma [degree]:                                   120.000000
 CELL| Numerically orthorhombic:                                              NO
 CELL| Periodicity                                                            XY

 CELL_REF| Volume [angstrom^3]:                                        81.840700
 CELL_REF| Vector a [angstrom     2.510     0.000     0.000   |a| =     2.510000
 CELL_REF| Vector b [angstrom    -1.255     2.174     0.000   |b| =     2.510000
 CELL_REF| Vector c [angstrom     0.000     0.000    15.000   |c| =    15.000000
 CELL_REF| Angle (b,c), alpha [degree]:                                90.000000
 CELL_REF| Angle (a,c), beta  [degree]:                                90.000000
 CELL_REF| Angle (a,b), gamma [degree]:                               120.000000
 CELL_REF| Numerically orthorhombic:                                          NO
 CELL_REF| Periodicity                                                        XY

 *******************************************************************************
                                    Kpoints
 *******************************************************************************
 BRILLOUIN| K-point scheme                                        Monkhorst-Pack
 BRILLOUIN| K-Point grid                                            48   48    1
 BRILLOUIN| Accuracy in Symmetry determination                      0.100000E-05
 BRILLOUIN| K-Point point group symmetrization                               OFF
 BRILLOUIN| Wavefunction type                                            COMPLEX
 BRILLOUIN| List of Kpoints [2 Pi/Bohr]                                     1152
 BRILLOUIN| Number           Weight            X              Y              Z
 BRILLOUIN|     1           0.00087       -0.48958       -0.48958        0.00000
 BRILLOUIN|     2           0.00087       -0.48958       -0.46875        0.00000
 BRILLOUIN|     3           0.00087       -0.48958       -0.44792        0.00000
 BRILLOUIN|     4           0.00087       -0.48958       -0.42708        0.00000
 BRILLOUIN|     5           0.00087       -0.48958       -0.40625        0.00000
 BRILLOUIN|     6           0.00087       -0.48958       -0.38542        0.00000
 BRILLOUIN|     7           0.00087       -0.48958       -0.36458        0.00000
 BRILLOUIN|     8           0.00087       -0.48958       -0.34375        0.00000
 BRILLOUIN|     9           0.00087       -0.48958       -0.32292        0.00000
 BRILLOUIN|    10           0.00087       -0.48958       -0.30208        0.00000
 BRILLOUIN|    11           0.00087       -0.48958       -0.28125        0.00000
 BRILLOUIN|    12           0.00087       -0.48958       -0.26042        0.00000
 BRILLOUIN|    13           0.00087       -0.48958       -0.23958        0.00000
 BRILLOUIN|    14           0.00087       -0.48958       -0.21875        0.00000
 BRILLOUIN|    15           0.00087       -0.48958       -0.19792        0.00000
 BRILLOUIN|    16           0.00087       -0.48958       -0.17708        0.00000
 BRILLOUIN|    17           0.00087       -0.48958       -0.15625        0.00000
 BRILLOUIN|    18           0.00087       -0.48958       -0.13542        0.00000
 BRILLOUIN|    19           0.00087       -0.48958       -0.11458        0.00000
 BRILLOUIN|    20           0.00087       -0.48958       -0.09375        0.00000
 BRILLOUIN|    21           0.00087       -0.48958       -0.07292        0.00000
 BRILLOUIN|    22           0.00087       -0.48958       -0.05208        0.00000
 BRILLOUIN|    23           0.00087       -0.48958       -0.03125        0.00000
 BRILLOUIN|    24           0.00087       -0.48958       -0.01042        0.00000
 BRILLOUIN|    25           0.00087       -0.48958        0.01042        0.00000
 BRILLOUIN|    26           0.00087       -0.48958        0.03125        0.00000
 BRILLOUIN|    27           0.00087       -0.48958        0.05208        0.00000
 BRILLOUIN|    28           0.00087       -0.48958        0.07292        0.00000
 BRILLOUIN|    29           0.00087       -0.48958        0.09375        0.00000
 BRILLOUIN|    30           0.00087       -0.48958        0.11458        0.00000
 BRILLOUIN|    31           0.00087       -0.48958        0.13542        0.00000
 BRILLOUIN|    32           0.00087       -0.48958        0.15625        0.00000
 BRILLOUIN|    33           0.00087       -0.48958        0.17708        0.00000
 BRILLOUIN|    34           0.00087       -0.48958        0.19792        0.00000
 BRILLOUIN|    35           0.00087       -0.48958        0.21875        0.00000
 BRILLOUIN|    36           0.00087       -0.48958        0.23958        0.00000
 BRILLOUIN|    37           0.00087       -0.48958        0.26042        0.00000
 BRILLOUIN|    38           0.00087       -0.48958        0.28125        0.00000
 BRILLOUIN|    39           0.00087       -0.48958        0.30208        0.00000
 BRILLOUIN|    40           0.00087       -0.48958        0.32292        0.00000
 BRILLOUIN|    41           0.00087       -0.48958        0.34375        0.00000
 BRILLOUIN|    42           0.00087       -0.48958        0.36458        0.00000
 BRILLOUIN|    43           0.00087       -0.48958        0.38542        0.00000
 BRILLOUIN|    44           0.00087       -0.48958        0.40625        0.00000
 BRILLOUIN|    45           0.00087       -0.48958        0.42708        0.00000
 BRILLOUIN|    46           0.00087       -0.48958        0.44792        0.00000
 BRILLOUIN|    47           0.00087       -0.48958        0.46875        0.00000
 BRILLOUIN|    48           0.00087       -0.48958        0.48958        0.00000
 BRILLOUIN|    49           0.00087       -0.46875       -0.48958        0.00000
 BRILLOUIN|    50           0.00087       -0.46875       -0.46875        0.00000
 BRILLOUIN|    51           0.00087       -0.46875       -0.44792        0.00000
 BRILLOUIN|    52           0.00087       -0.46875       -0.42708        0.00000
 BRILLOUIN|    53           0.00087       -0.46875       -0.40625        0.00000
 BRILLOUIN|    54           0.00087       -0.46875       -0.38542        0.00000
 BRILLOUIN|    55           0.00087       -0.46875       -0.36458        0.00000
 BRILLOUIN|    56           0.00087       -0.46875       -0.34375        0.00000
 BRILLOUIN|    57           0.00087       -0.46875       -0.32292        0.00000
 BRILLOUIN|    58           0.00087       -0.46875       -0.30208        0.00000
 BRILLOUIN|    59           0.00087       -0.46875       -0.28125        0.00000
 BRILLOUIN|    60           0.00087       -0.46875       -0.26042        0.00000
 BRILLOUIN|    61           0.00087       -0.46875       -0.23958        0.00000
 BRILLOUIN|    62           0.00087       -0.46875       -0.21875        0.00000
 BRILLOUIN|    63           0.00087       -0.46875       -0.19792        0.00000
 BRILLOUIN|    64           0.00087       -0.46875       -0.17708        0.00000
 BRILLOUIN|    65           0.00087       -0.46875       -0.15625        0.00000
 BRILLOUIN|    66           0.00087       -0.46875       -0.13542        0.00000
 BRILLOUIN|    67           0.00087       -0.46875       -0.11458        0.00000
 BRILLOUIN|    68           0.00087       -0.46875       -0.09375        0.00000
 BRILLOUIN|    69           0.00087       -0.46875       -0.07292        0.00000
 BRILLOUIN|    70           0.00087       -0.46875       -0.05208        0.00000
 BRILLOUIN|    71           0.00087       -0.46875       -0.03125        0.00000
 BRILLOUIN|    72           0.00087       -0.46875       -0.01042        0.00000
 BRILLOUIN|    73           0.00087       -0.46875        0.01042        0.00000
 BRILLOUIN|    74           0.00087       -0.46875        0.03125        0.00000
 BRILLOUIN|    75           0.00087       -0.46875        0.05208        0.00000
 BRILLOUIN|    76           0.00087       -0.46875        0.07292        0.00000
 BRILLOUIN|    77           0.00087       -0.46875        0.09375        0.00000
 BRILLOUIN|    78           0.00087       -0.46875        0.11458        0.00000
 BRILLOUIN|    79           0.00087       -0.46875        0.13542        0.00000
 BRILLOUIN|    80           0.00087       -0.46875        0.15625        0.00000
 BRILLOUIN|    81           0.00087       -0.46875        0.17708        0.00000
 BRILLOUIN|    82           0.00087       -0.46875        0.19792        0.00000
 BRILLOUIN|    83           0.00087       -0.46875        0.21875        0.00000
 BRILLOUIN|    84           0.00087       -0.46875        0.23958        0.00000
 BRILLOUIN|    85           0.00087       -0.46875        0.26042        0.00000
 BRILLOUIN|    86           0.00087       -0.46875        0.28125        0.00000
 BRILLOUIN|    87           0.00087       -0.46875        0.30208        0.00000
 BRILLOUIN|    88           0.00087       -0.46875        0.32292        0.00000
 BRILLOUIN|    89           0.00087       -0.46875        0.34375        0.00000
 BRILLOUIN|    90           0.00087       -0.46875        0.36458        0.00000
 BRILLOUIN|    91           0.00087       -0.46875        0.38542        0.00000
 BRILLOUIN|    92           0.00087       -0.46875        0.40625        0.00000
 BRILLOUIN|    93           0.00087       -0.46875        0.42708        0.00000
 BRILLOUIN|    94           0.00087       -0.46875        0.44792        0.00000
 BRILLOUIN|    95           0.00087       -0.46875        0.46875        0.00000
 BRILLOUIN|    96           0.00087       -0.46875        0.48958        0.00000
 BRILLOUIN|    97           0.00087       -0.44792       -0.48958        0.00000
 BRILLOUIN|    98           0.00087       -0.44792       -0.46875        0.00000
 BRILLOUIN|    99           0.00087       -0.44792       -0.44792        0.00000
 BRILLOUIN|   100           0.00087       -0.44792       -0.42708        0.00000
 BRILLOUIN|   101           0.00087       -0.44792       -0.40625        0.00000
 BRILLOUIN|   102           0.00087       -0.44792       -0.38542        0.00000
 BRILLOUIN|   103           0.00087       -0.44792       -0.36458        0.00000
 BRILLOUIN|   104           0.00087       -0.44792       -0.34375        0.00000
 BRILLOUIN|   105           0.00087       -0.44792       -0.32292        0.00000
 BRILLOUIN|   106           0.00087       -0.44792       -0.30208        0.00000
 BRILLOUIN|   107           0.00087       -0.44792       -0.28125        0.00000
 BRILLOUIN|   108           0.00087       -0.44792       -0.26042        0.00000
 BRILLOUIN|   109           0.00087       -0.44792       -0.23958        0.00000
 BRILLOUIN|   110           0.00087       -0.44792       -0.21875        0.00000
 BRILLOUIN|   111           0.00087       -0.44792       -0.19792        0.00000
 BRILLOUIN|   112           0.00087       -0.44792       -0.17708        0.00000
 BRILLOUIN|   113           0.00087       -0.44792       -0.15625        0.00000
 BRILLOUIN|   114           0.00087       -0.44792       -0.13542        0.00000
 BRILLOUIN|   115           0.00087       -0.44792       -0.11458        0.00000
 BRILLOUIN|   116           0.00087       -0.44792       -0.09375        0.00000
 BRILLOUIN|   117           0.00087       -0.44792       -0.07292        0.00000
 BRILLOUIN|   118           0.00087       -0.44792       -0.05208        0.00000
 BRILLOUIN|   119           0.00087       -0.44792       -0.03125        0.00000
 BRILLOUIN|   120           0.00087       -0.44792       -0.01042        0.00000
 BRILLOUIN|   121           0.00087       -0.44792        0.01042        0.00000
 BRILLOUIN|   122           0.00087       -0.44792        0.03125        0.00000
 BRILLOUIN|   123           0.00087       -0.44792        0.05208        0.00000
 BRILLOUIN|   124           0.00087       -0.44792        0.07292        0.00000
 BRILLOUIN|   125           0.00087       -0.44792        0.09375        0.00000
 BRILLOUIN|   126           0.00087       -0.44792        0.11458        0.00000
 BRILLOUIN|   127           0.00087       -0.44792        0.13542        0.00000
 BRILLOUIN|   128           0.00087       -0.44792        0.15625        0.00000
 BRILLOUIN|   129           0.00087       -0.44792        0.17708        0.00000
 BRILLOUIN|   130           0.00087       -0.44792        0.19792        0.00000
 BRILLOUIN|   131           0.00087       -0.44792        0.21875        0.00000
 BRILLOUIN|   132           0.00087       -0.44792        0.23958        0.00000
 BRILLOUIN|   133           0.00087       -0.44792        0.26042        0.00000
 BRILLOUIN|   134           0.00087       -0.44792        0.28125        0.00000
 BRILLOUIN|   135           0.00087       -0.44792        0.30208        0.00000
 BRILLOUIN|   136           0.00087       -0.44792        0.32292        0.00000
 BRILLOUIN|   137           0.00087       -0.44792        0.34375        0.00000
 BRILLOUIN|   138           0.00087       -0.44792        0.36458        0.00000
 BRILLOUIN|   139           0.00087       -0.44792        0.38542        0.00000
 BRILLOUIN|   140           0.00087       -0.44792        0.40625        0.00000
 BRILLOUIN|   141           0.00087       -0.44792        0.42708        0.00000
 BRILLOUIN|   142           0.00087       -0.44792        0.44792        0.00000
 BRILLOUIN|   143           0.00087       -0.44792        0.46875        0.00000
 BRILLOUIN|   144           0.00087       -0.44792        0.48958        0.00000
 BRILLOUIN|   145           0.00087       -0.42708       -0.48958        0.00000
 BRILLOUIN|   146           0.00087       -0.42708       -0.46875        0.00000
 BRILLOUIN|   147           0.00087       -0.42708       -0.44792        0.00000
 BRILLOUIN|   148           0.00087       -0.42708       -0.42708        0.00000
 BRILLOUIN|   149           0.00087       -0.42708       -0.40625        0.00000
 BRILLOUIN|   150           0.00087       -0.42708       -0.38542        0.00000
 BRILLOUIN|   151           0.00087       -0.42708       -0.36458        0.00000
 BRILLOUIN|   152           0.00087       -0.42708       -0.34375        0.00000
 BRILLOUIN|   153           0.00087       -0.42708       -0.32292        0.00000
 BRILLOUIN|   154           0.00087       -0.42708       -0.30208        0.00000
 BRILLOUIN|   155           0.00087       -0.42708       -0.28125        0.00000
 BRILLOUIN|   156           0.00087       -0.42708       -0.26042        0.00000
 BRILLOUIN|   157           0.00087       -0.42708       -0.23958        0.00000
 BRILLOUIN|   158           0.00087       -0.42708       -0.21875        0.00000
 BRILLOUIN|   159           0.00087       -0.42708       -0.19792        0.00000
 BRILLOUIN|   160           0.00087       -0.42708       -0.17708        0.00000
 BRILLOUIN|   161           0.00087       -0.42708       -0.15625        0.00000
 BRILLOUIN|   162           0.00087       -0.42708       -0.13542        0.00000
 BRILLOUIN|   163           0.00087       -0.42708       -0.11458        0.00000
 BRILLOUIN|   164           0.00087       -0.42708       -0.09375        0.00000
 BRILLOUIN|   165           0.00087       -0.42708       -0.07292        0.00000
 BRILLOUIN|   166           0.00087       -0.42708       -0.05208        0.00000
 BRILLOUIN|   167           0.00087       -0.42708       -0.03125        0.00000
 BRILLOUIN|   168           0.00087       -0.42708       -0.01042        0.00000
 BRILLOUIN|   169           0.00087       -0.42708        0.01042        0.00000
 BRILLOUIN|   170           0.00087       -0.42708        0.03125        0.00000
 BRILLOUIN|   171           0.00087       -0.42708        0.05208        0.00000
 BRILLOUIN|   172           0.00087       -0.42708        0.07292        0.00000
 BRILLOUIN|   173           0.00087       -0.42708        0.09375        0.00000
 BRILLOUIN|   174           0.00087       -0.42708        0.11458        0.00000
 BRILLOUIN|   175           0.00087       -0.42708        0.13542        0.00000
 BRILLOUIN|   176           0.00087       -0.42708        0.15625        0.00000
 BRILLOUIN|   177           0.00087       -0.42708        0.17708        0.00000
 BRILLOUIN|   178           0.00087       -0.42708        0.19792        0.00000
 BRILLOUIN|   179           0.00087       -0.42708        0.21875        0.00000
 BRILLOUIN|   180           0.00087       -0.42708        0.23958        0.00000
 BRILLOUIN|   181           0.00087       -0.42708        0.26042        0.00000
 BRILLOUIN|   182           0.00087       -0.42708        0.28125        0.00000
 BRILLOUIN|   183           0.00087       -0.42708        0.30208        0.00000
 BRILLOUIN|   184           0.00087       -0.42708        0.32292        0.00000
 BRILLOUIN|   185           0.00087       -0.42708        0.34375        0.00000
 BRILLOUIN|   186           0.00087       -0.42708        0.36458        0.00000
 BRILLOUIN|   187           0.00087       -0.42708        0.38542        0.00000
 BRILLOUIN|   188           0.00087       -0.42708        0.40625        0.00000
 BRILLOUIN|   189           0.00087       -0.42708        0.42708        0.00000
 BRILLOUIN|   190           0.00087       -0.42708        0.44792        0.00000
 BRILLOUIN|   191           0.00087       -0.42708        0.46875        0.00000
 BRILLOUIN|   192           0.00087       -0.42708        0.48958        0.00000
 BRILLOUIN|   193           0.00087       -0.40625       -0.48958        0.00000
 BRILLOUIN|   194           0.00087       -0.40625       -0.46875        0.00000
 BRILLOUIN|   195           0.00087       -0.40625       -0.44792        0.00000
 BRILLOUIN|   196           0.00087       -0.40625       -0.42708        0.00000
 BRILLOUIN|   197           0.00087       -0.40625       -0.40625        0.00000
 BRILLOUIN|   198           0.00087       -0.40625       -0.38542        0.00000
 BRILLOUIN|   199           0.00087       -0.40625       -0.36458        0.00000
 BRILLOUIN|   200           0.00087       -0.40625       -0.34375        0.00000
 BRILLOUIN|   201           0.00087       -0.40625       -0.32292        0.00000
 BRILLOUIN|   202           0.00087       -0.40625       -0.30208        0.00000
 BRILLOUIN|   203           0.00087       -0.40625       -0.28125        0.00000
 BRILLOUIN|   204           0.00087       -0.40625       -0.26042        0.00000
 BRILLOUIN|   205           0.00087       -0.40625       -0.23958        0.00000
 BRILLOUIN|   206           0.00087       -0.40625       -0.21875        0.00000
 BRILLOUIN|   207           0.00087       -0.40625       -0.19792        0.00000
 BRILLOUIN|   208           0.00087       -0.40625       -0.17708        0.00000
 BRILLOUIN|   209           0.00087       -0.40625       -0.15625        0.00000
 BRILLOUIN|   210           0.00087       -0.40625       -0.13542        0.00000
 BRILLOUIN|   211           0.00087       -0.40625       -0.11458        0.00000
 BRILLOUIN|   212           0.00087       -0.40625       -0.09375        0.00000
 BRILLOUIN|   213           0.00087       -0.40625       -0.07292        0.00000
 BRILLOUIN|   214           0.00087       -0.40625       -0.05208        0.00000
 BRILLOUIN|   215           0.00087       -0.40625       -0.03125        0.00000
 BRILLOUIN|   216           0.00087       -0.40625       -0.01042        0.00000
 BRILLOUIN|   217           0.00087       -0.40625        0.01042        0.00000
 BRILLOUIN|   218           0.00087       -0.40625        0.03125        0.00000
 BRILLOUIN|   219           0.00087       -0.40625        0.05208        0.00000
 BRILLOUIN|   220           0.00087       -0.40625        0.07292        0.00000
 BRILLOUIN|   221           0.00087       -0.40625        0.09375        0.00000
 BRILLOUIN|   222           0.00087       -0.40625        0.11458        0.00000
 BRILLOUIN|   223           0.00087       -0.40625        0.13542        0.00000
 BRILLOUIN|   224           0.00087       -0.40625        0.15625        0.00000
 BRILLOUIN|   225           0.00087       -0.40625        0.17708        0.00000
 BRILLOUIN|   226           0.00087       -0.40625        0.19792        0.00000
 BRILLOUIN|   227           0.00087       -0.40625        0.21875        0.00000
 BRILLOUIN|   228           0.00087       -0.40625        0.23958        0.00000
 BRILLOUIN|   229           0.00087       -0.40625        0.26042        0.00000
 BRILLOUIN|   230           0.00087       -0.40625        0.28125        0.00000
 BRILLOUIN|   231           0.00087       -0.40625        0.30208        0.00000
 BRILLOUIN|   232           0.00087       -0.40625        0.32292        0.00000
 BRILLOUIN|   233           0.00087       -0.40625        0.34375        0.00000
 BRILLOUIN|   234           0.00087       -0.40625        0.36458        0.00000
 BRILLOUIN|   235           0.00087       -0.40625        0.38542        0.00000
 BRILLOUIN|   236           0.00087       -0.40625        0.40625        0.00000
 BRILLOUIN|   237           0.00087       -0.40625        0.42708        0.00000
 BRILLOUIN|   238           0.00087       -0.40625        0.44792        0.00000
 BRILLOUIN|   239           0.00087       -0.40625        0.46875        0.00000
 BRILLOUIN|   240           0.00087       -0.40625        0.48958        0.00000
 BRILLOUIN|   241           0.00087       -0.38542       -0.48958        0.00000
 BRILLOUIN|   242           0.00087       -0.38542       -0.46875        0.00000
 BRILLOUIN|   243           0.00087       -0.38542       -0.44792        0.00000
 BRILLOUIN|   244           0.00087       -0.38542       -0.42708        0.00000
 BRILLOUIN|   245           0.00087       -0.38542       -0.40625        0.00000
 BRILLOUIN|   246           0.00087       -0.38542       -0.38542        0.00000
 BRILLOUIN|   247           0.00087       -0.38542       -0.36458        0.00000
 BRILLOUIN|   248           0.00087       -0.38542       -0.34375        0.00000
 BRILLOUIN|   249           0.00087       -0.38542       -0.32292        0.00000
 BRILLOUIN|   250           0.00087       -0.38542       -0.30208        0.00000
 BRILLOUIN|   251           0.00087       -0.38542       -0.28125        0.00000
 BRILLOUIN|   252           0.00087       -0.38542       -0.26042        0.00000
 BRILLOUIN|   253           0.00087       -0.38542       -0.23958        0.00000
 BRILLOUIN|   254           0.00087       -0.38542       -0.21875        0.00000
 BRILLOUIN|   255           0.00087       -0.38542       -0.19792        0.00000
 BRILLOUIN|   256           0.00087       -0.38542       -0.17708        0.00000
 BRILLOUIN|   257           0.00087       -0.38542       -0.15625        0.00000
 BRILLOUIN|   258           0.00087       -0.38542       -0.13542        0.00000
 BRILLOUIN|   259           0.00087       -0.38542       -0.11458        0.00000
 BRILLOUIN|   260           0.00087       -0.38542       -0.09375        0.00000
 BRILLOUIN|   261           0.00087       -0.38542       -0.07292        0.00000
 BRILLOUIN|   262           0.00087       -0.38542       -0.05208        0.00000
 BRILLOUIN|   263           0.00087       -0.38542       -0.03125        0.00000
 BRILLOUIN|   264           0.00087       -0.38542       -0.01042        0.00000
 BRILLOUIN|   265           0.00087       -0.38542        0.01042        0.00000
 BRILLOUIN|   266           0.00087       -0.38542        0.03125        0.00000
 BRILLOUIN|   267           0.00087       -0.38542        0.05208        0.00000
 BRILLOUIN|   268           0.00087       -0.38542        0.07292        0.00000
 BRILLOUIN|   269           0.00087       -0.38542        0.09375        0.00000
 BRILLOUIN|   270           0.00087       -0.38542        0.11458        0.00000
 BRILLOUIN|   271           0.00087       -0.38542        0.13542        0.00000
 BRILLOUIN|   272           0.00087       -0.38542        0.15625        0.00000
 BRILLOUIN|   273           0.00087       -0.38542        0.17708        0.00000
 BRILLOUIN|   274           0.00087       -0.38542        0.19792        0.00000
 BRILLOUIN|   275           0.00087       -0.38542        0.21875        0.00000
 BRILLOUIN|   276           0.00087       -0.38542        0.23958        0.00000
 BRILLOUIN|   277           0.00087       -0.38542        0.26042        0.00000
 BRILLOUIN|   278           0.00087       -0.38542        0.28125        0.00000
 BRILLOUIN|   279           0.00087       -0.38542        0.30208        0.00000
 BRILLOUIN|   280           0.00087       -0.38542        0.32292        0.00000
 BRILLOUIN|   281           0.00087       -0.38542        0.34375        0.00000
 BRILLOUIN|   282           0.00087       -0.38542        0.36458        0.00000
 BRILLOUIN|   283           0.00087       -0.38542        0.38542        0.00000
 BRILLOUIN|   284           0.00087       -0.38542        0.40625        0.00000
 BRILLOUIN|   285           0.00087       -0.38542        0.42708        0.00000
 BRILLOUIN|   286           0.00087       -0.38542        0.44792        0.00000
 BRILLOUIN|   287           0.00087       -0.38542        0.46875        0.00000
 BRILLOUIN|   288           0.00087       -0.38542        0.48958        0.00000
 BRILLOUIN|   289           0.00087       -0.36458       -0.48958        0.00000
 BRILLOUIN|   290           0.00087       -0.36458       -0.46875        0.00000
 BRILLOUIN|   291           0.00087       -0.36458       -0.44792        0.00000
 BRILLOUIN|   292           0.00087       -0.36458       -0.42708        0.00000
 BRILLOUIN|   293           0.00087       -0.36458       -0.40625        0.00000
 BRILLOUIN|   294           0.00087       -0.36458       -0.38542        0.00000
 BRILLOUIN|   295           0.00087       -0.36458       -0.36458        0.00000
 BRILLOUIN|   296           0.00087       -0.36458       -0.34375        0.00000
 BRILLOUIN|   297           0.00087       -0.36458       -0.32292        0.00000
 BRILLOUIN|   298           0.00087       -0.36458       -0.30208        0.00000
 BRILLOUIN|   299           0.00087       -0.36458       -0.28125        0.00000
 BRILLOUIN|   300           0.00087       -0.36458       -0.26042        0.00000
 BRILLOUIN|   301           0.00087       -0.36458       -0.23958        0.00000
 BRILLOUIN|   302           0.00087       -0.36458       -0.21875        0.00000
 BRILLOUIN|   303           0.00087       -0.36458       -0.19792        0.00000
 BRILLOUIN|   304           0.00087       -0.36458       -0.17708        0.00000
 BRILLOUIN|   305           0.00087       -0.36458       -0.15625        0.00000
 BRILLOUIN|   306           0.00087       -0.36458       -0.13542        0.00000
 BRILLOUIN|   307           0.00087       -0.36458       -0.11458        0.00000
 BRILLOUIN|   308           0.00087       -0.36458       -0.09375        0.00000
 BRILLOUIN|   309           0.00087       -0.36458       -0.07292        0.00000
 BRILLOUIN|   310           0.00087       -0.36458       -0.05208        0.00000
 BRILLOUIN|   311           0.00087       -0.36458       -0.03125        0.00000
 BRILLOUIN|   312           0.00087       -0.36458       -0.01042        0.00000
 BRILLOUIN|   313           0.00087       -0.36458        0.01042        0.00000
 BRILLOUIN|   314           0.00087       -0.36458        0.03125        0.00000
 BRILLOUIN|   315           0.00087       -0.36458        0.05208        0.00000
 BRILLOUIN|   316           0.00087       -0.36458        0.07292        0.00000
 BRILLOUIN|   317           0.00087       -0.36458        0.09375        0.00000
 BRILLOUIN|   318           0.00087       -0.36458        0.11458        0.00000
 BRILLOUIN|   319           0.00087       -0.36458        0.13542        0.00000
 BRILLOUIN|   320           0.00087       -0.36458        0.15625        0.00000
 BRILLOUIN|   321           0.00087       -0.36458        0.17708        0.00000
 BRILLOUIN|   322           0.00087       -0.36458        0.19792        0.00000
 BRILLOUIN|   323           0.00087       -0.36458        0.21875        0.00000
 BRILLOUIN|   324           0.00087       -0.36458        0.23958        0.00000
 BRILLOUIN|   325           0.00087       -0.36458        0.26042        0.00000
 BRILLOUIN|   326           0.00087       -0.36458        0.28125        0.00000
 BRILLOUIN|   327           0.00087       -0.36458        0.30208        0.00000
 BRILLOUIN|   328           0.00087       -0.36458        0.32292        0.00000
 BRILLOUIN|   329           0.00087       -0.36458        0.34375        0.00000
 BRILLOUIN|   330           0.00087       -0.36458        0.36458        0.00000
 BRILLOUIN|   331           0.00087       -0.36458        0.38542        0.00000
 BRILLOUIN|   332           0.00087       -0.36458        0.40625        0.00000
 BRILLOUIN|   333           0.00087       -0.36458        0.42708        0.00000
 BRILLOUIN|   334           0.00087       -0.36458        0.44792        0.00000
 BRILLOUIN|   335           0.00087       -0.36458        0.46875        0.00000
 BRILLOUIN|   336           0.00087       -0.36458        0.48958        0.00000
 BRILLOUIN|   337           0.00087       -0.34375       -0.48958        0.00000
 BRILLOUIN|   338           0.00087       -0.34375       -0.46875        0.00000
 BRILLOUIN|   339           0.00087       -0.34375       -0.44792        0.00000
 BRILLOUIN|   340           0.00087       -0.34375       -0.42708        0.00000
 BRILLOUIN|   341           0.00087       -0.34375       -0.40625        0.00000
 BRILLOUIN|   342           0.00087       -0.34375       -0.38542        0.00000
 BRILLOUIN|   343           0.00087       -0.34375       -0.36458        0.00000
 BRILLOUIN|   344           0.00087       -0.34375       -0.34375        0.00000
 BRILLOUIN|   345           0.00087       -0.34375       -0.32292        0.00000
 BRILLOUIN|   346           0.00087       -0.34375       -0.30208        0.00000
 BRILLOUIN|   347           0.00087       -0.34375       -0.28125        0.00000
 BRILLOUIN|   348           0.00087       -0.34375       -0.26042        0.00000
 BRILLOUIN|   349           0.00087       -0.34375       -0.23958        0.00000
 BRILLOUIN|   350           0.00087       -0.34375       -0.21875        0.00000
 BRILLOUIN|   351           0.00087       -0.34375       -0.19792        0.00000
 BRILLOUIN|   352           0.00087       -0.34375       -0.17708        0.00000
 BRILLOUIN|   353           0.00087       -0.34375       -0.15625        0.00000
 BRILLOUIN|   354           0.00087       -0.34375       -0.13542        0.00000
 BRILLOUIN|   355           0.00087       -0.34375       -0.11458        0.00000
 BRILLOUIN|   356           0.00087       -0.34375       -0.09375        0.00000
 BRILLOUIN|   357           0.00087       -0.34375       -0.07292        0.00000
 BRILLOUIN|   358           0.00087       -0.34375       -0.05208        0.00000
 BRILLOUIN|   359           0.00087       -0.34375       -0.03125        0.00000
 BRILLOUIN|   360           0.00087       -0.34375       -0.01042        0.00000
 BRILLOUIN|   361           0.00087       -0.34375        0.01042        0.00000
 BRILLOUIN|   362           0.00087       -0.34375        0.03125        0.00000
 BRILLOUIN|   363           0.00087       -0.34375        0.05208        0.00000
 BRILLOUIN|   364           0.00087       -0.34375        0.07292        0.00000
 BRILLOUIN|   365           0.00087       -0.34375        0.09375        0.00000
 BRILLOUIN|   366           0.00087       -0.34375        0.11458        0.00000
 BRILLOUIN|   367           0.00087       -0.34375        0.13542        0.00000
 BRILLOUIN|   368           0.00087       -0.34375        0.15625        0.00000
 BRILLOUIN|   369           0.00087       -0.34375        0.17708        0.00000
 BRILLOUIN|   370           0.00087       -0.34375        0.19792        0.00000
 BRILLOUIN|   371           0.00087       -0.34375        0.21875        0.00000
 BRILLOUIN|   372           0.00087       -0.34375        0.23958        0.00000
 BRILLOUIN|   373           0.00087       -0.34375        0.26042        0.00000
 BRILLOUIN|   374           0.00087       -0.34375        0.28125        0.00000
 BRILLOUIN|   375           0.00087       -0.34375        0.30208        0.00000
 BRILLOUIN|   376           0.00087       -0.34375        0.32292        0.00000
 BRILLOUIN|   377           0.00087       -0.34375        0.34375        0.00000
 BRILLOUIN|   378           0.00087       -0.34375        0.36458        0.00000
 BRILLOUIN|   379           0.00087       -0.34375        0.38542        0.00000
 BRILLOUIN|   380           0.00087       -0.34375        0.40625        0.00000
 BRILLOUIN|   381           0.00087       -0.34375        0.42708        0.00000
 BRILLOUIN|   382           0.00087       -0.34375        0.44792        0.00000
 BRILLOUIN|   383           0.00087       -0.34375        0.46875        0.00000
 BRILLOUIN|   384           0.00087       -0.34375        0.48958        0.00000
 BRILLOUIN|   385           0.00087       -0.32292       -0.48958        0.00000
 BRILLOUIN|   386           0.00087       -0.32292       -0.46875        0.00000
 BRILLOUIN|   387           0.00087       -0.32292       -0.44792        0.00000
 BRILLOUIN|   388           0.00087       -0.32292       -0.42708        0.00000
 BRILLOUIN|   389           0.00087       -0.32292       -0.40625        0.00000
 BRILLOUIN|   390           0.00087       -0.32292       -0.38542        0.00000
 BRILLOUIN|   391           0.00087       -0.32292       -0.36458        0.00000
 BRILLOUIN|   392           0.00087       -0.32292       -0.34375        0.00000
 BRILLOUIN|   393           0.00087       -0.32292       -0.32292        0.00000
 BRILLOUIN|   394           0.00087       -0.32292       -0.30208        0.00000
 BRILLOUIN|   395           0.00087       -0.32292       -0.28125        0.00000
 BRILLOUIN|   396           0.00087       -0.32292       -0.26042        0.00000
 BRILLOUIN|   397           0.00087       -0.32292       -0.23958        0.00000
 BRILLOUIN|   398           0.00087       -0.32292       -0.21875        0.00000
 BRILLOUIN|   399           0.00087       -0.32292       -0.19792        0.00000
 BRILLOUIN|   400           0.00087       -0.32292       -0.17708        0.00000
 BRILLOUIN|   401           0.00087       -0.32292       -0.15625        0.00000
 BRILLOUIN|   402           0.00087       -0.32292       -0.13542        0.00000
 BRILLOUIN|   403           0.00087       -0.32292       -0.11458        0.00000
 BRILLOUIN|   404           0.00087       -0.32292       -0.09375        0.00000
 BRILLOUIN|   405           0.00087       -0.32292       -0.07292        0.00000
 BRILLOUIN|   406           0.00087       -0.32292       -0.05208        0.00000
 BRILLOUIN|   407           0.00087       -0.32292       -0.03125        0.00000
 BRILLOUIN|   408           0.00087       -0.32292       -0.01042        0.00000
 BRILLOUIN|   409           0.00087       -0.32292        0.01042        0.00000
 BRILLOUIN|   410           0.00087       -0.32292        0.03125        0.00000
 BRILLOUIN|   411           0.00087       -0.32292        0.05208        0.00000
 BRILLOUIN|   412           0.00087       -0.32292        0.07292        0.00000
 BRILLOUIN|   413           0.00087       -0.32292        0.09375        0.00000
 BRILLOUIN|   414           0.00087       -0.32292        0.11458        0.00000
 BRILLOUIN|   415           0.00087       -0.32292        0.13542        0.00000
 BRILLOUIN|   416           0.00087       -0.32292        0.15625        0.00000
 BRILLOUIN|   417           0.00087       -0.32292        0.17708        0.00000
 BRILLOUIN|   418           0.00087       -0.32292        0.19792        0.00000
 BRILLOUIN|   419           0.00087       -0.32292        0.21875        0.00000
 BRILLOUIN|   420           0.00087       -0.32292        0.23958        0.00000
 BRILLOUIN|   421           0.00087       -0.32292        0.26042        0.00000
 BRILLOUIN|   422           0.00087       -0.32292        0.28125        0.00000
 BRILLOUIN|   423           0.00087       -0.32292        0.30208        0.00000
 BRILLOUIN|   424           0.00087       -0.32292        0.32292        0.00000
 BRILLOUIN|   425           0.00087       -0.32292        0.34375        0.00000
 BRILLOUIN|   426           0.00087       -0.32292        0.36458        0.00000
 BRILLOUIN|   427           0.00087       -0.32292        0.38542        0.00000
 BRILLOUIN|   428           0.00087       -0.32292        0.40625        0.00000
 BRILLOUIN|   429           0.00087       -0.32292        0.42708        0.00000
 BRILLOUIN|   430           0.00087       -0.32292        0.44792        0.00000
 BRILLOUIN|   431           0.00087       -0.32292        0.46875        0.00000
 BRILLOUIN|   432           0.00087       -0.32292        0.48958        0.00000
 BRILLOUIN|   433           0.00087       -0.30208       -0.48958        0.00000
 BRILLOUIN|   434           0.00087       -0.30208       -0.46875        0.00000
 BRILLOUIN|   435           0.00087       -0.30208       -0.44792        0.00000
 BRILLOUIN|   436           0.00087       -0.30208       -0.42708        0.00000
 BRILLOUIN|   437           0.00087       -0.30208       -0.40625        0.00000
 BRILLOUIN|   438           0.00087       -0.30208       -0.38542        0.00000
 BRILLOUIN|   439           0.00087       -0.30208       -0.36458        0.00000
 BRILLOUIN|   440           0.00087       -0.30208       -0.34375        0.00000
 BRILLOUIN|   441           0.00087       -0.30208       -0.32292        0.00000
 BRILLOUIN|   442           0.00087       -0.30208       -0.30208        0.00000
 BRILLOUIN|   443           0.00087       -0.30208       -0.28125        0.00000
 BRILLOUIN|   444           0.00087       -0.30208       -0.26042        0.00000
 BRILLOUIN|   445           0.00087       -0.30208       -0.23958        0.00000
 BRILLOUIN|   446           0.00087       -0.30208       -0.21875        0.00000
 BRILLOUIN|   447           0.00087       -0.30208       -0.19792        0.00000
 BRILLOUIN|   448           0.00087       -0.30208       -0.17708        0.00000
 BRILLOUIN|   449           0.00087       -0.30208       -0.15625        0.00000
 BRILLOUIN|   450           0.00087       -0.30208       -0.13542        0.00000
 BRILLOUIN|   451           0.00087       -0.30208       -0.11458        0.00000
 BRILLOUIN|   452           0.00087       -0.30208       -0.09375        0.00000
 BRILLOUIN|   453           0.00087       -0.30208       -0.07292        0.00000
 BRILLOUIN|   454           0.00087       -0.30208       -0.05208        0.00000
 BRILLOUIN|   455           0.00087       -0.30208       -0.03125        0.00000
 BRILLOUIN|   456           0.00087       -0.30208       -0.01042        0.00000
 BRILLOUIN|   457           0.00087       -0.30208        0.01042        0.00000
 BRILLOUIN|   458           0.00087       -0.30208        0.03125        0.00000
 BRILLOUIN|   459           0.00087       -0.30208        0.05208        0.00000
 BRILLOUIN|   460           0.00087       -0.30208        0.07292        0.00000
 BRILLOUIN|   461           0.00087       -0.30208        0.09375        0.00000
 BRILLOUIN|   462           0.00087       -0.30208        0.11458        0.00000
 BRILLOUIN|   463           0.00087       -0.30208        0.13542        0.00000
 BRILLOUIN|   464           0.00087       -0.30208        0.15625        0.00000
 BRILLOUIN|   465           0.00087       -0.30208        0.17708        0.00000
 BRILLOUIN|   466           0.00087       -0.30208        0.19792        0.00000
 BRILLOUIN|   467           0.00087       -0.30208        0.21875        0.00000
 BRILLOUIN|   468           0.00087       -0.30208        0.23958        0.00000
 BRILLOUIN|   469           0.00087       -0.30208        0.26042        0.00000
 BRILLOUIN|   470           0.00087       -0.30208        0.28125        0.00000
 BRILLOUIN|   471           0.00087       -0.30208        0.30208        0.00000
 BRILLOUIN|   472           0.00087       -0.30208        0.32292        0.00000
 BRILLOUIN|   473           0.00087       -0.30208        0.34375        0.00000
 BRILLOUIN|   474           0.00087       -0.30208        0.36458        0.00000
 BRILLOUIN|   475           0.00087       -0.30208        0.38542        0.00000
 BRILLOUIN|   476           0.00087       -0.30208        0.40625        0.00000
 BRILLOUIN|   477           0.00087       -0.30208        0.42708        0.00000
 BRILLOUIN|   478           0.00087       -0.30208        0.44792        0.00000
 BRILLOUIN|   479           0.00087       -0.30208        0.46875        0.00000
 BRILLOUIN|   480           0.00087       -0.30208        0.48958        0.00000
 BRILLOUIN|   481           0.00087       -0.28125       -0.48958        0.00000
 BRILLOUIN|   482           0.00087       -0.28125       -0.46875        0.00000
 BRILLOUIN|   483           0.00087       -0.28125       -0.44792        0.00000
 BRILLOUIN|   484           0.00087       -0.28125       -0.42708        0.00000
 BRILLOUIN|   485           0.00087       -0.28125       -0.40625        0.00000
 BRILLOUIN|   486           0.00087       -0.28125       -0.38542        0.00000
 BRILLOUIN|   487           0.00087       -0.28125       -0.36458        0.00000
 BRILLOUIN|   488           0.00087       -0.28125       -0.34375        0.00000
 BRILLOUIN|   489           0.00087       -0.28125       -0.32292        0.00000
 BRILLOUIN|   490           0.00087       -0.28125       -0.30208        0.00000
 BRILLOUIN|   491           0.00087       -0.28125       -0.28125        0.00000
 BRILLOUIN|   492           0.00087       -0.28125       -0.26042        0.00000
 BRILLOUIN|   493           0.00087       -0.28125       -0.23958        0.00000
 BRILLOUIN|   494           0.00087       -0.28125       -0.21875        0.00000
 BRILLOUIN|   495           0.00087       -0.28125       -0.19792        0.00000
 BRILLOUIN|   496           0.00087       -0.28125       -0.17708        0.00000
 BRILLOUIN|   497           0.00087       -0.28125       -0.15625        0.00000
 BRILLOUIN|   498           0.00087       -0.28125       -0.13542        0.00000
 BRILLOUIN|   499           0.00087       -0.28125       -0.11458        0.00000
 BRILLOUIN|   500           0.00087       -0.28125       -0.09375        0.00000
 BRILLOUIN|   501           0.00087       -0.28125       -0.07292        0.00000
 BRILLOUIN|   502           0.00087       -0.28125       -0.05208        0.00000
 BRILLOUIN|   503           0.00087       -0.28125       -0.03125        0.00000
 BRILLOUIN|   504           0.00087       -0.28125       -0.01042        0.00000
 BRILLOUIN|   505           0.00087       -0.28125        0.01042        0.00000
 BRILLOUIN|   506           0.00087       -0.28125        0.03125        0.00000
 BRILLOUIN|   507           0.00087       -0.28125        0.05208        0.00000
 BRILLOUIN|   508           0.00087       -0.28125        0.07292        0.00000
 BRILLOUIN|   509           0.00087       -0.28125        0.09375        0.00000
 BRILLOUIN|   510           0.00087       -0.28125        0.11458        0.00000
 BRILLOUIN|   511           0.00087       -0.28125        0.13542        0.00000
 BRILLOUIN|   512           0.00087       -0.28125        0.15625        0.00000
 BRILLOUIN|   513           0.00087       -0.28125        0.17708        0.00000
 BRILLOUIN|   514           0.00087       -0.28125        0.19792        0.00000
 BRILLOUIN|   515           0.00087       -0.28125        0.21875        0.00000
 BRILLOUIN|   516           0.00087       -0.28125        0.23958        0.00000
 BRILLOUIN|   517           0.00087       -0.28125        0.26042        0.00000
 BRILLOUIN|   518           0.00087       -0.28125        0.28125        0.00000
 BRILLOUIN|   519           0.00087       -0.28125        0.30208        0.00000
 BRILLOUIN|   520           0.00087       -0.28125        0.32292        0.00000
 BRILLOUIN|   521           0.00087       -0.28125        0.34375        0.00000
 BRILLOUIN|   522           0.00087       -0.28125        0.36458        0.00000
 BRILLOUIN|   523           0.00087       -0.28125        0.38542        0.00000
 BRILLOUIN|   524           0.00087       -0.28125        0.40625        0.00000
 BRILLOUIN|   525           0.00087       -0.28125        0.42708        0.00000
 BRILLOUIN|   526           0.00087       -0.28125        0.44792        0.00000
 BRILLOUIN|   527           0.00087       -0.28125        0.46875        0.00000
 BRILLOUIN|   528           0.00087       -0.28125        0.48958        0.00000
 BRILLOUIN|   529           0.00087       -0.26042       -0.48958        0.00000
 BRILLOUIN|   530           0.00087       -0.26042       -0.46875        0.00000
 BRILLOUIN|   531           0.00087       -0.26042       -0.44792        0.00000
 BRILLOUIN|   532           0.00087       -0.26042       -0.42708        0.00000
 BRILLOUIN|   533           0.00087       -0.26042       -0.40625        0.00000
 BRILLOUIN|   534           0.00087       -0.26042       -0.38542        0.00000
 BRILLOUIN|   535           0.00087       -0.26042       -0.36458        0.00000
 BRILLOUIN|   536           0.00087       -0.26042       -0.34375        0.00000
 BRILLOUIN|   537           0.00087       -0.26042       -0.32292        0.00000
 BRILLOUIN|   538           0.00087       -0.26042       -0.30208        0.00000
 BRILLOUIN|   539           0.00087       -0.26042       -0.28125        0.00000
 BRILLOUIN|   540           0.00087       -0.26042       -0.26042        0.00000
 BRILLOUIN|   541           0.00087       -0.26042       -0.23958        0.00000
 BRILLOUIN|   542           0.00087       -0.26042       -0.21875        0.00000
 BRILLOUIN|   543           0.00087       -0.26042       -0.19792        0.00000
 BRILLOUIN|   544           0.00087       -0.26042       -0.17708        0.00000
 BRILLOUIN|   545           0.00087       -0.26042       -0.15625        0.00000
 BRILLOUIN|   546           0.00087       -0.26042       -0.13542        0.00000
 BRILLOUIN|   547           0.00087       -0.26042       -0.11458        0.00000
 BRILLOUIN|   548           0.00087       -0.26042       -0.09375        0.00000
 BRILLOUIN|   549           0.00087       -0.26042       -0.07292        0.00000
 BRILLOUIN|   550           0.00087       -0.26042       -0.05208        0.00000
 BRILLOUIN|   551           0.00087       -0.26042       -0.03125        0.00000
 BRILLOUIN|   552           0.00087       -0.26042       -0.01042        0.00000
 BRILLOUIN|   553           0.00087       -0.26042        0.01042        0.00000
 BRILLOUIN|   554           0.00087       -0.26042        0.03125        0.00000
 BRILLOUIN|   555           0.00087       -0.26042        0.05208        0.00000
 BRILLOUIN|   556           0.00087       -0.26042        0.07292        0.00000
 BRILLOUIN|   557           0.00087       -0.26042        0.09375        0.00000
 BRILLOUIN|   558           0.00087       -0.26042        0.11458        0.00000
 BRILLOUIN|   559           0.00087       -0.26042        0.13542        0.00000
 BRILLOUIN|   560           0.00087       -0.26042        0.15625        0.00000
 BRILLOUIN|   561           0.00087       -0.26042        0.17708        0.00000
 BRILLOUIN|   562           0.00087       -0.26042        0.19792        0.00000
 BRILLOUIN|   563           0.00087       -0.26042        0.21875        0.00000
 BRILLOUIN|   564           0.00087       -0.26042        0.23958        0.00000
 BRILLOUIN|   565           0.00087       -0.26042        0.26042        0.00000
 BRILLOUIN|   566           0.00087       -0.26042        0.28125        0.00000
 BRILLOUIN|   567           0.00087       -0.26042        0.30208        0.00000
 BRILLOUIN|   568           0.00087       -0.26042        0.32292        0.00000
 BRILLOUIN|   569           0.00087       -0.26042        0.34375        0.00000
 BRILLOUIN|   570           0.00087       -0.26042        0.36458        0.00000
 BRILLOUIN|   571           0.00087       -0.26042        0.38542        0.00000
 BRILLOUIN|   572           0.00087       -0.26042        0.40625        0.00000
 BRILLOUIN|   573           0.00087       -0.26042        0.42708        0.00000
 BRILLOUIN|   574           0.00087       -0.26042        0.44792        0.00000
 BRILLOUIN|   575           0.00087       -0.26042        0.46875        0.00000
 BRILLOUIN|   576           0.00087       -0.26042        0.48958        0.00000
 BRILLOUIN|   577           0.00087       -0.23958       -0.48958        0.00000
 BRILLOUIN|   578           0.00087       -0.23958       -0.46875        0.00000
 BRILLOUIN|   579           0.00087       -0.23958       -0.44792        0.00000
 BRILLOUIN|   580           0.00087       -0.23958       -0.42708        0.00000
 BRILLOUIN|   581           0.00087       -0.23958       -0.40625        0.00000
 BRILLOUIN|   582           0.00087       -0.23958       -0.38542        0.00000
 BRILLOUIN|   583           0.00087       -0.23958       -0.36458        0.00000
 BRILLOUIN|   584           0.00087       -0.23958       -0.34375        0.00000
 BRILLOUIN|   585           0.00087       -0.23958       -0.32292        0.00000
 BRILLOUIN|   586           0.00087       -0.23958       -0.30208        0.00000
 BRILLOUIN|   587           0.00087       -0.23958       -0.28125        0.00000
 BRILLOUIN|   588           0.00087       -0.23958       -0.26042        0.00000
 BRILLOUIN|   589           0.00087       -0.23958       -0.23958        0.00000
 BRILLOUIN|   590           0.00087       -0.23958       -0.21875        0.00000
 BRILLOUIN|   591           0.00087       -0.23958       -0.19792        0.00000
 BRILLOUIN|   592           0.00087       -0.23958       -0.17708        0.00000
 BRILLOUIN|   593           0.00087       -0.23958       -0.15625        0.00000
 BRILLOUIN|   594           0.00087       -0.23958       -0.13542        0.00000
 BRILLOUIN|   595           0.00087       -0.23958       -0.11458        0.00000
 BRILLOUIN|   596           0.00087       -0.23958       -0.09375        0.00000
 BRILLOUIN|   597           0.00087       -0.23958       -0.07292        0.00000
 BRILLOUIN|   598           0.00087       -0.23958       -0.05208        0.00000
 BRILLOUIN|   599           0.00087       -0.23958       -0.03125        0.00000
 BRILLOUIN|   600           0.00087       -0.23958       -0.01042        0.00000
 BRILLOUIN|   601           0.00087       -0.23958        0.01042        0.00000
 BRILLOUIN|   602           0.00087       -0.23958        0.03125        0.00000
 BRILLOUIN|   603           0.00087       -0.23958        0.05208        0.00000
 BRILLOUIN|   604           0.00087       -0.23958        0.07292        0.00000
 BRILLOUIN|   605           0.00087       -0.23958        0.09375        0.00000
 BRILLOUIN|   606           0.00087       -0.23958        0.11458        0.00000
 BRILLOUIN|   607           0.00087       -0.23958        0.13542        0.00000
 BRILLOUIN|   608           0.00087       -0.23958        0.15625        0.00000
 BRILLOUIN|   609           0.00087       -0.23958        0.17708        0.00000
 BRILLOUIN|   610           0.00087       -0.23958        0.19792        0.00000
 BRILLOUIN|   611           0.00087       -0.23958        0.21875        0.00000
 BRILLOUIN|   612           0.00087       -0.23958        0.23958        0.00000
 BRILLOUIN|   613           0.00087       -0.23958        0.26042        0.00000
 BRILLOUIN|   614           0.00087       -0.23958        0.28125        0.00000
 BRILLOUIN|   615           0.00087       -0.23958        0.30208        0.00000
 BRILLOUIN|   616           0.00087       -0.23958        0.32292        0.00000
 BRILLOUIN|   617           0.00087       -0.23958        0.34375        0.00000
 BRILLOUIN|   618           0.00087       -0.23958        0.36458        0.00000
 BRILLOUIN|   619           0.00087       -0.23958        0.38542        0.00000
 BRILLOUIN|   620           0.00087       -0.23958        0.40625        0.00000
 BRILLOUIN|   621           0.00087       -0.23958        0.42708        0.00000
 BRILLOUIN|   622           0.00087       -0.23958        0.44792        0.00000
 BRILLOUIN|   623           0.00087       -0.23958        0.46875        0.00000
 BRILLOUIN|   624           0.00087       -0.23958        0.48958        0.00000
 BRILLOUIN|   625           0.00087       -0.21875       -0.48958        0.00000
 BRILLOUIN|   626           0.00087       -0.21875       -0.46875        0.00000
 BRILLOUIN|   627           0.00087       -0.21875       -0.44792        0.00000
 BRILLOUIN|   628           0.00087       -0.21875       -0.42708        0.00000
 BRILLOUIN|   629           0.00087       -0.21875       -0.40625        0.00000
 BRILLOUIN|   630           0.00087       -0.21875       -0.38542        0.00000
 BRILLOUIN|   631           0.00087       -0.21875       -0.36458        0.00000
 BRILLOUIN|   632           0.00087       -0.21875       -0.34375        0.00000
 BRILLOUIN|   633           0.00087       -0.21875       -0.32292        0.00000
 BRILLOUIN|   634           0.00087       -0.21875       -0.30208        0.00000
 BRILLOUIN|   635           0.00087       -0.21875       -0.28125        0.00000
 BRILLOUIN|   636           0.00087       -0.21875       -0.26042        0.00000
 BRILLOUIN|   637           0.00087       -0.21875       -0.23958        0.00000
 BRILLOUIN|   638           0.00087       -0.21875       -0.21875        0.00000
 BRILLOUIN|   639           0.00087       -0.21875       -0.19792        0.00000
 BRILLOUIN|   640           0.00087       -0.21875       -0.17708        0.00000
 BRILLOUIN|   641           0.00087       -0.21875       -0.15625        0.00000
 BRILLOUIN|   642           0.00087       -0.21875       -0.13542        0.00000
 BRILLOUIN|   643           0.00087       -0.21875       -0.11458        0.00000
 BRILLOUIN|   644           0.00087       -0.21875       -0.09375        0.00000
 BRILLOUIN|   645           0.00087       -0.21875       -0.07292        0.00000
 BRILLOUIN|   646           0.00087       -0.21875       -0.05208        0.00000
 BRILLOUIN|   647           0.00087       -0.21875       -0.03125        0.00000
 BRILLOUIN|   648           0.00087       -0.21875       -0.01042        0.00000
 BRILLOUIN|   649           0.00087       -0.21875        0.01042        0.00000
 BRILLOUIN|   650           0.00087       -0.21875        0.03125        0.00000
 BRILLOUIN|   651           0.00087       -0.21875        0.05208        0.00000
 BRILLOUIN|   652           0.00087       -0.21875        0.07292        0.00000
 BRILLOUIN|   653           0.00087       -0.21875        0.09375        0.00000
 BRILLOUIN|   654           0.00087       -0.21875        0.11458        0.00000
 BRILLOUIN|   655           0.00087       -0.21875        0.13542        0.00000
 BRILLOUIN|   656           0.00087       -0.21875        0.15625        0.00000
 BRILLOUIN|   657           0.00087       -0.21875        0.17708        0.00000
 BRILLOUIN|   658           0.00087       -0.21875        0.19792        0.00000
 BRILLOUIN|   659           0.00087       -0.21875        0.21875        0.00000
 BRILLOUIN|   660           0.00087       -0.21875        0.23958        0.00000
 BRILLOUIN|   661           0.00087       -0.21875        0.26042        0.00000
 BRILLOUIN|   662           0.00087       -0.21875        0.28125        0.00000
 BRILLOUIN|   663           0.00087       -0.21875        0.30208        0.00000
 BRILLOUIN|   664           0.00087       -0.21875        0.32292        0.00000
 BRILLOUIN|   665           0.00087       -0.21875        0.34375        0.00000
 BRILLOUIN|   666           0.00087       -0.21875        0.36458        0.00000
 BRILLOUIN|   667           0.00087       -0.21875        0.38542        0.00000
 BRILLOUIN|   668           0.00087       -0.21875        0.40625        0.00000
 BRILLOUIN|   669           0.00087       -0.21875        0.42708        0.00000
 BRILLOUIN|   670           0.00087       -0.21875        0.44792        0.00000
 BRILLOUIN|   671           0.00087       -0.21875        0.46875        0.00000
 BRILLOUIN|   672           0.00087       -0.21875        0.48958        0.00000
 BRILLOUIN|   673           0.00087       -0.19792       -0.48958        0.00000
 BRILLOUIN|   674           0.00087       -0.19792       -0.46875        0.00000
 BRILLOUIN|   675           0.00087       -0.19792       -0.44792        0.00000
 BRILLOUIN|   676           0.00087       -0.19792       -0.42708        0.00000
 BRILLOUIN|   677           0.00087       -0.19792       -0.40625        0.00000
 BRILLOUIN|   678           0.00087       -0.19792       -0.38542        0.00000
 BRILLOUIN|   679           0.00087       -0.19792       -0.36458        0.00000
 BRILLOUIN|   680           0.00087       -0.19792       -0.34375        0.00000
 BRILLOUIN|   681           0.00087       -0.19792       -0.32292        0.00000
 BRILLOUIN|   682           0.00087       -0.19792       -0.30208        0.00000
 BRILLOUIN|   683           0.00087       -0.19792       -0.28125        0.00000
 BRILLOUIN|   684           0.00087       -0.19792       -0.26042        0.00000
 BRILLOUIN|   685           0.00087       -0.19792       -0.23958        0.00000
 BRILLOUIN|   686           0.00087       -0.19792       -0.21875        0.00000
 BRILLOUIN|   687           0.00087       -0.19792       -0.19792        0.00000
 BRILLOUIN|   688           0.00087       -0.19792       -0.17708        0.00000
 BRILLOUIN|   689           0.00087       -0.19792       -0.15625        0.00000
 BRILLOUIN|   690           0.00087       -0.19792       -0.13542        0.00000
 BRILLOUIN|   691           0.00087       -0.19792       -0.11458        0.00000
 BRILLOUIN|   692           0.00087       -0.19792       -0.09375        0.00000
 BRILLOUIN|   693           0.00087       -0.19792       -0.07292        0.00000
 BRILLOUIN|   694           0.00087       -0.19792       -0.05208        0.00000
 BRILLOUIN|   695           0.00087       -0.19792       -0.03125        0.00000
 BRILLOUIN|   696           0.00087       -0.19792       -0.01042        0.00000
 BRILLOUIN|   697           0.00087       -0.19792        0.01042        0.00000
 BRILLOUIN|   698           0.00087       -0.19792        0.03125        0.00000
 BRILLOUIN|   699           0.00087       -0.19792        0.05208        0.00000
 BRILLOUIN|   700           0.00087       -0.19792        0.07292        0.00000
 BRILLOUIN|   701           0.00087       -0.19792        0.09375        0.00000
 BRILLOUIN|   702           0.00087       -0.19792        0.11458        0.00000
 BRILLOUIN|   703           0.00087       -0.19792        0.13542        0.00000
 BRILLOUIN|   704           0.00087       -0.19792        0.15625        0.00000
 BRILLOUIN|   705           0.00087       -0.19792        0.17708        0.00000
 BRILLOUIN|   706           0.00087       -0.19792        0.19792        0.00000
 BRILLOUIN|   707           0.00087       -0.19792        0.21875        0.00000
 BRILLOUIN|   708           0.00087       -0.19792        0.23958        0.00000
 BRILLOUIN|   709           0.00087       -0.19792        0.26042        0.00000
 BRILLOUIN|   710           0.00087       -0.19792        0.28125        0.00000
 BRILLOUIN|   711           0.00087       -0.19792        0.30208        0.00000
 BRILLOUIN|   712           0.00087       -0.19792        0.32292        0.00000
 BRILLOUIN|   713           0.00087       -0.19792        0.34375        0.00000
 BRILLOUIN|   714           0.00087       -0.19792        0.36458        0.00000
 BRILLOUIN|   715           0.00087       -0.19792        0.38542        0.00000
 BRILLOUIN|   716           0.00087       -0.19792        0.40625        0.00000
 BRILLOUIN|   717           0.00087       -0.19792        0.42708        0.00000
 BRILLOUIN|   718           0.00087       -0.19792        0.44792        0.00000
 BRILLOUIN|   719           0.00087       -0.19792        0.46875        0.00000
 BRILLOUIN|   720           0.00087       -0.19792        0.48958        0.00000
 BRILLOUIN|   721           0.00087       -0.17708       -0.48958        0.00000
 BRILLOUIN|   722           0.00087       -0.17708       -0.46875        0.00000
 BRILLOUIN|   723           0.00087       -0.17708       -0.44792        0.00000
 BRILLOUIN|   724           0.00087       -0.17708       -0.42708        0.00000
 BRILLOUIN|   725           0.00087       -0.17708       -0.40625        0.00000
 BRILLOUIN|   726           0.00087       -0.17708       -0.38542        0.00000
 BRILLOUIN|   727           0.00087       -0.17708       -0.36458        0.00000
 BRILLOUIN|   728           0.00087       -0.17708       -0.34375        0.00000
 BRILLOUIN|   729           0.00087       -0.17708       -0.32292        0.00000
 BRILLOUIN|   730           0.00087       -0.17708       -0.30208        0.00000
 BRILLOUIN|   731           0.00087       -0.17708       -0.28125        0.00000
 BRILLOUIN|   732           0.00087       -0.17708       -0.26042        0.00000
 BRILLOUIN|   733           0.00087       -0.17708       -0.23958        0.00000
 BRILLOUIN|   734           0.00087       -0.17708       -0.21875        0.00000
 BRILLOUIN|   735           0.00087       -0.17708       -0.19792        0.00000
 BRILLOUIN|   736           0.00087       -0.17708       -0.17708        0.00000
 BRILLOUIN|   737           0.00087       -0.17708       -0.15625        0.00000
 BRILLOUIN|   738           0.00087       -0.17708       -0.13542        0.00000
 BRILLOUIN|   739           0.00087       -0.17708       -0.11458        0.00000
 BRILLOUIN|   740           0.00087       -0.17708       -0.09375        0.00000
 BRILLOUIN|   741           0.00087       -0.17708       -0.07292        0.00000
 BRILLOUIN|   742           0.00087       -0.17708       -0.05208        0.00000
 BRILLOUIN|   743           0.00087       -0.17708       -0.03125        0.00000
 BRILLOUIN|   744           0.00087       -0.17708       -0.01042        0.00000
 BRILLOUIN|   745           0.00087       -0.17708        0.01042        0.00000
 BRILLOUIN|   746           0.00087       -0.17708        0.03125        0.00000
 BRILLOUIN|   747           0.00087       -0.17708        0.05208        0.00000
 BRILLOUIN|   748           0.00087       -0.17708        0.07292        0.00000
 BRILLOUIN|   749           0.00087       -0.17708        0.09375        0.00000
 BRILLOUIN|   750           0.00087       -0.17708        0.11458        0.00000
 BRILLOUIN|   751           0.00087       -0.17708        0.13542        0.00000
 BRILLOUIN|   752           0.00087       -0.17708        0.15625        0.00000
 BRILLOUIN|   753           0.00087       -0.17708        0.17708        0.00000
 BRILLOUIN|   754           0.00087       -0.17708        0.19792        0.00000
 BRILLOUIN|   755           0.00087       -0.17708        0.21875        0.00000
 BRILLOUIN|   756           0.00087       -0.17708        0.23958        0.00000
 BRILLOUIN|   757           0.00087       -0.17708        0.26042        0.00000
 BRILLOUIN|   758           0.00087       -0.17708        0.28125        0.00000
 BRILLOUIN|   759           0.00087       -0.17708        0.30208        0.00000
 BRILLOUIN|   760           0.00087       -0.17708        0.32292        0.00000
 BRILLOUIN|   761           0.00087       -0.17708        0.34375        0.00000
 BRILLOUIN|   762           0.00087       -0.17708        0.36458        0.00000
 BRILLOUIN|   763           0.00087       -0.17708        0.38542        0.00000
 BRILLOUIN|   764           0.00087       -0.17708        0.40625        0.00000
 BRILLOUIN|   765           0.00087       -0.17708        0.42708        0.00000
 BRILLOUIN|   766           0.00087       -0.17708        0.44792        0.00000
 BRILLOUIN|   767           0.00087       -0.17708        0.46875        0.00000
 BRILLOUIN|   768           0.00087       -0.17708        0.48958        0.00000
 BRILLOUIN|   769           0.00087       -0.15625       -0.48958        0.00000
 BRILLOUIN|   770           0.00087       -0.15625       -0.46875        0.00000
 BRILLOUIN|   771           0.00087       -0.15625       -0.44792        0.00000
 BRILLOUIN|   772           0.00087       -0.15625       -0.42708        0.00000
 BRILLOUIN|   773           0.00087       -0.15625       -0.40625        0.00000
 BRILLOUIN|   774           0.00087       -0.15625       -0.38542        0.00000
 BRILLOUIN|   775           0.00087       -0.15625       -0.36458        0.00000
 BRILLOUIN|   776           0.00087       -0.15625       -0.34375        0.00000
 BRILLOUIN|   777           0.00087       -0.15625       -0.32292        0.00000
 BRILLOUIN|   778           0.00087       -0.15625       -0.30208        0.00000
 BRILLOUIN|   779           0.00087       -0.15625       -0.28125        0.00000
 BRILLOUIN|   780           0.00087       -0.15625       -0.26042        0.00000
 BRILLOUIN|   781           0.00087       -0.15625       -0.23958        0.00000
 BRILLOUIN|   782           0.00087       -0.15625       -0.21875        0.00000
 BRILLOUIN|   783           0.00087       -0.15625       -0.19792        0.00000
 BRILLOUIN|   784           0.00087       -0.15625       -0.17708        0.00000
 BRILLOUIN|   785           0.00087       -0.15625       -0.15625        0.00000
 BRILLOUIN|   786           0.00087       -0.15625       -0.13542        0.00000
 BRILLOUIN|   787           0.00087       -0.15625       -0.11458        0.00000
 BRILLOUIN|   788           0.00087       -0.15625       -0.09375        0.00000
 BRILLOUIN|   789           0.00087       -0.15625       -0.07292        0.00000
 BRILLOUIN|   790           0.00087       -0.15625       -0.05208        0.00000
 BRILLOUIN|   791           0.00087       -0.15625       -0.03125        0.00000
 BRILLOUIN|   792           0.00087       -0.15625       -0.01042        0.00000
 BRILLOUIN|   793           0.00087       -0.15625        0.01042        0.00000
 BRILLOUIN|   794           0.00087       -0.15625        0.03125        0.00000
 BRILLOUIN|   795           0.00087       -0.15625        0.05208        0.00000
 BRILLOUIN|   796           0.00087       -0.15625        0.07292        0.00000
 BRILLOUIN|   797           0.00087       -0.15625        0.09375        0.00000
 BRILLOUIN|   798           0.00087       -0.15625        0.11458        0.00000
 BRILLOUIN|   799           0.00087       -0.15625        0.13542        0.00000
 BRILLOUIN|   800           0.00087       -0.15625        0.15625        0.00000
 BRILLOUIN|   801           0.00087       -0.15625        0.17708        0.00000
 BRILLOUIN|   802           0.00087       -0.15625        0.19792        0.00000
 BRILLOUIN|   803           0.00087       -0.15625        0.21875        0.00000
 BRILLOUIN|   804           0.00087       -0.15625        0.23958        0.00000
 BRILLOUIN|   805           0.00087       -0.15625        0.26042        0.00000
 BRILLOUIN|   806           0.00087       -0.15625        0.28125        0.00000
 BRILLOUIN|   807           0.00087       -0.15625        0.30208        0.00000
 BRILLOUIN|   808           0.00087       -0.15625        0.32292        0.00000
 BRILLOUIN|   809           0.00087       -0.15625        0.34375        0.00000
 BRILLOUIN|   810           0.00087       -0.15625        0.36458        0.00000
 BRILLOUIN|   811           0.00087       -0.15625        0.38542        0.00000
 BRILLOUIN|   812           0.00087       -0.15625        0.40625        0.00000
 BRILLOUIN|   813           0.00087       -0.15625        0.42708        0.00000
 BRILLOUIN|   814           0.00087       -0.15625        0.44792        0.00000
 BRILLOUIN|   815           0.00087       -0.15625        0.46875        0.00000
 BRILLOUIN|   816           0.00087       -0.15625        0.48958        0.00000
 BRILLOUIN|   817           0.00087       -0.13542       -0.48958        0.00000
 BRILLOUIN|   818           0.00087       -0.13542       -0.46875        0.00000
 BRILLOUIN|   819           0.00087       -0.13542       -0.44792        0.00000
 BRILLOUIN|   820           0.00087       -0.13542       -0.42708        0.00000
 BRILLOUIN|   821           0.00087       -0.13542       -0.40625        0.00000
 BRILLOUIN|   822           0.00087       -0.13542       -0.38542        0.00000
 BRILLOUIN|   823           0.00087       -0.13542       -0.36458        0.00000
 BRILLOUIN|   824           0.00087       -0.13542       -0.34375        0.00000
 BRILLOUIN|   825           0.00087       -0.13542       -0.32292        0.00000
 BRILLOUIN|   826           0.00087       -0.13542       -0.30208        0.00000
 BRILLOUIN|   827           0.00087       -0.13542       -0.28125        0.00000
 BRILLOUIN|   828           0.00087       -0.13542       -0.26042        0.00000
 BRILLOUIN|   829           0.00087       -0.13542       -0.23958        0.00000
 BRILLOUIN|   830           0.00087       -0.13542       -0.21875        0.00000
 BRILLOUIN|   831           0.00087       -0.13542       -0.19792        0.00000
 BRILLOUIN|   832           0.00087       -0.13542       -0.17708        0.00000
 BRILLOUIN|   833           0.00087       -0.13542       -0.15625        0.00000
 BRILLOUIN|   834           0.00087       -0.13542       -0.13542        0.00000
 BRILLOUIN|   835           0.00087       -0.13542       -0.11458        0.00000
 BRILLOUIN|   836           0.00087       -0.13542       -0.09375        0.00000
 BRILLOUIN|   837           0.00087       -0.13542       -0.07292        0.00000
 BRILLOUIN|   838           0.00087       -0.13542       -0.05208        0.00000
 BRILLOUIN|   839           0.00087       -0.13542       -0.03125        0.00000
 BRILLOUIN|   840           0.00087       -0.13542       -0.01042        0.00000
 BRILLOUIN|   841           0.00087       -0.13542        0.01042        0.00000
 BRILLOUIN|   842           0.00087       -0.13542        0.03125        0.00000
 BRILLOUIN|   843           0.00087       -0.13542        0.05208        0.00000
 BRILLOUIN|   844           0.00087       -0.13542        0.07292        0.00000
 BRILLOUIN|   845           0.00087       -0.13542        0.09375        0.00000
 BRILLOUIN|   846           0.00087       -0.13542        0.11458        0.00000
 BRILLOUIN|   847           0.00087       -0.13542        0.13542        0.00000
 BRILLOUIN|   848           0.00087       -0.13542        0.15625        0.00000
 BRILLOUIN|   849           0.00087       -0.13542        0.17708        0.00000
 BRILLOUIN|   850           0.00087       -0.13542        0.19792        0.00000
 BRILLOUIN|   851           0.00087       -0.13542        0.21875        0.00000
 BRILLOUIN|   852           0.00087       -0.13542        0.23958        0.00000
 BRILLOUIN|   853           0.00087       -0.13542        0.26042        0.00000
 BRILLOUIN|   854           0.00087       -0.13542        0.28125        0.00000
 BRILLOUIN|   855           0.00087       -0.13542        0.30208        0.00000
 BRILLOUIN|   856           0.00087       -0.13542        0.32292        0.00000
 BRILLOUIN|   857           0.00087       -0.13542        0.34375        0.00000
 BRILLOUIN|   858           0.00087       -0.13542        0.36458        0.00000
 BRILLOUIN|   859           0.00087       -0.13542        0.38542        0.00000
 BRILLOUIN|   860           0.00087       -0.13542        0.40625        0.00000
 BRILLOUIN|   861           0.00087       -0.13542        0.42708        0.00000
 BRILLOUIN|   862           0.00087       -0.13542        0.44792        0.00000
 BRILLOUIN|   863           0.00087       -0.13542        0.46875        0.00000
 BRILLOUIN|   864           0.00087       -0.13542        0.48958        0.00000
 BRILLOUIN|   865           0.00087       -0.11458       -0.48958        0.00000
 BRILLOUIN|   866           0.00087       -0.11458       -0.46875        0.00000
 BRILLOUIN|   867           0.00087       -0.11458       -0.44792        0.00000
 BRILLOUIN|   868           0.00087       -0.11458       -0.42708        0.00000
 BRILLOUIN|   869           0.00087       -0.11458       -0.40625        0.00000
 BRILLOUIN|   870           0.00087       -0.11458       -0.38542        0.00000
 BRILLOUIN|   871           0.00087       -0.11458       -0.36458        0.00000
 BRILLOUIN|   872           0.00087       -0.11458       -0.34375        0.00000
 BRILLOUIN|   873           0.00087       -0.11458       -0.32292        0.00000
 BRILLOUIN|   874           0.00087       -0.11458       -0.30208        0.00000
 BRILLOUIN|   875           0.00087       -0.11458       -0.28125        0.00000
 BRILLOUIN|   876           0.00087       -0.11458       -0.26042        0.00000
 BRILLOUIN|   877           0.00087       -0.11458       -0.23958        0.00000
 BRILLOUIN|   878           0.00087       -0.11458       -0.21875        0.00000
 BRILLOUIN|   879           0.00087       -0.11458       -0.19792        0.00000
 BRILLOUIN|   880           0.00087       -0.11458       -0.17708        0.00000
 BRILLOUIN|   881           0.00087       -0.11458       -0.15625        0.00000
 BRILLOUIN|   882           0.00087       -0.11458       -0.13542        0.00000
 BRILLOUIN|   883           0.00087       -0.11458       -0.11458        0.00000
 BRILLOUIN|   884           0.00087       -0.11458       -0.09375        0.00000
 BRILLOUIN|   885           0.00087       -0.11458       -0.07292        0.00000
 BRILLOUIN|   886           0.00087       -0.11458       -0.05208        0.00000
 BRILLOUIN|   887           0.00087       -0.11458       -0.03125        0.00000
 BRILLOUIN|   888           0.00087       -0.11458       -0.01042        0.00000
 BRILLOUIN|   889           0.00087       -0.11458        0.01042        0.00000
 BRILLOUIN|   890           0.00087       -0.11458        0.03125        0.00000
 BRILLOUIN|   891           0.00087       -0.11458        0.05208        0.00000
 BRILLOUIN|   892           0.00087       -0.11458        0.07292        0.00000
 BRILLOUIN|   893           0.00087       -0.11458        0.09375        0.00000
 BRILLOUIN|   894           0.00087       -0.11458        0.11458        0.00000
 BRILLOUIN|   895           0.00087       -0.11458        0.13542        0.00000
 BRILLOUIN|   896           0.00087       -0.11458        0.15625        0.00000
 BRILLOUIN|   897           0.00087       -0.11458        0.17708        0.00000
 BRILLOUIN|   898           0.00087       -0.11458        0.19792        0.00000
 BRILLOUIN|   899           0.00087       -0.11458        0.21875        0.00000
 BRILLOUIN|   900           0.00087       -0.11458        0.23958        0.00000
 BRILLOUIN|   901           0.00087       -0.11458        0.26042        0.00000
 BRILLOUIN|   902           0.00087       -0.11458        0.28125        0.00000
 BRILLOUIN|   903           0.00087       -0.11458        0.30208        0.00000
 BRILLOUIN|   904           0.00087       -0.11458        0.32292        0.00000
 BRILLOUIN|   905           0.00087       -0.11458        0.34375        0.00000
 BRILLOUIN|   906           0.00087       -0.11458        0.36458        0.00000
 BRILLOUIN|   907           0.00087       -0.11458        0.38542        0.00000
 BRILLOUIN|   908           0.00087       -0.11458        0.40625        0.00000
 BRILLOUIN|   909           0.00087       -0.11458        0.42708        0.00000
 BRILLOUIN|   910           0.00087       -0.11458        0.44792        0.00000
 BRILLOUIN|   911           0.00087       -0.11458        0.46875        0.00000
 BRILLOUIN|   912           0.00087       -0.11458        0.48958        0.00000
 BRILLOUIN|   913           0.00087       -0.09375       -0.48958        0.00000
 BRILLOUIN|   914           0.00087       -0.09375       -0.46875        0.00000
 BRILLOUIN|   915           0.00087       -0.09375       -0.44792        0.00000
 BRILLOUIN|   916           0.00087       -0.09375       -0.42708        0.00000
 BRILLOUIN|   917           0.00087       -0.09375       -0.40625        0.00000
 BRILLOUIN|   918           0.00087       -0.09375       -0.38542        0.00000
 BRILLOUIN|   919           0.00087       -0.09375       -0.36458        0.00000
 BRILLOUIN|   920           0.00087       -0.09375       -0.34375        0.00000
 BRILLOUIN|   921           0.00087       -0.09375       -0.32292        0.00000
 BRILLOUIN|   922           0.00087       -0.09375       -0.30208        0.00000
 BRILLOUIN|   923           0.00087       -0.09375       -0.28125        0.00000
 BRILLOUIN|   924           0.00087       -0.09375       -0.26042        0.00000
 BRILLOUIN|   925           0.00087       -0.09375       -0.23958        0.00000
 BRILLOUIN|   926           0.00087       -0.09375       -0.21875        0.00000
 BRILLOUIN|   927           0.00087       -0.09375       -0.19792        0.00000
 BRILLOUIN|   928           0.00087       -0.09375       -0.17708        0.00000
 BRILLOUIN|   929           0.00087       -0.09375       -0.15625        0.00000
 BRILLOUIN|   930           0.00087       -0.09375       -0.13542        0.00000
 BRILLOUIN|   931           0.00087       -0.09375       -0.11458        0.00000
 BRILLOUIN|   932           0.00087       -0.09375       -0.09375        0.00000
 BRILLOUIN|   933           0.00087       -0.09375       -0.07292        0.00000
 BRILLOUIN|   934           0.00087       -0.09375       -0.05208        0.00000
 BRILLOUIN|   935           0.00087       -0.09375       -0.03125        0.00000
 BRILLOUIN|   936           0.00087       -0.09375       -0.01042        0.00000
 BRILLOUIN|   937           0.00087       -0.09375        0.01042        0.00000
 BRILLOUIN|   938           0.00087       -0.09375        0.03125        0.00000
 BRILLOUIN|   939           0.00087       -0.09375        0.05208        0.00000
 BRILLOUIN|   940           0.00087       -0.09375        0.07292        0.00000
 BRILLOUIN|   941           0.00087       -0.09375        0.09375        0.00000
 BRILLOUIN|   942           0.00087       -0.09375        0.11458        0.00000
 BRILLOUIN|   943           0.00087       -0.09375        0.13542        0.00000
 BRILLOUIN|   944           0.00087       -0.09375        0.15625        0.00000
 BRILLOUIN|   945           0.00087       -0.09375        0.17708        0.00000
 BRILLOUIN|   946           0.00087       -0.09375        0.19792        0.00000
 BRILLOUIN|   947           0.00087       -0.09375        0.21875        0.00000
 BRILLOUIN|   948           0.00087       -0.09375        0.23958        0.00000
 BRILLOUIN|   949           0.00087       -0.09375        0.26042        0.00000
 BRILLOUIN|   950           0.00087       -0.09375        0.28125        0.00000
 BRILLOUIN|   951           0.00087       -0.09375        0.30208        0.00000
 BRILLOUIN|   952           0.00087       -0.09375        0.32292        0.00000
 BRILLOUIN|   953           0.00087       -0.09375        0.34375        0.00000
 BRILLOUIN|   954           0.00087       -0.09375        0.36458        0.00000
 BRILLOUIN|   955           0.00087       -0.09375        0.38542        0.00000
 BRILLOUIN|   956           0.00087       -0.09375        0.40625        0.00000
 BRILLOUIN|   957           0.00087       -0.09375        0.42708        0.00000
 BRILLOUIN|   958           0.00087       -0.09375        0.44792        0.00000
 BRILLOUIN|   959           0.00087       -0.09375        0.46875        0.00000
 BRILLOUIN|   960           0.00087       -0.09375        0.48958        0.00000
 BRILLOUIN|   961           0.00087       -0.07292       -0.48958        0.00000
 BRILLOUIN|   962           0.00087       -0.07292       -0.46875        0.00000
 BRILLOUIN|   963           0.00087       -0.07292       -0.44792        0.00000
 BRILLOUIN|   964           0.00087       -0.07292       -0.42708        0.00000
 BRILLOUIN|   965           0.00087       -0.07292       -0.40625        0.00000
 BRILLOUIN|   966           0.00087       -0.07292       -0.38542        0.00000
 BRILLOUIN|   967           0.00087       -0.07292       -0.36458        0.00000
 BRILLOUIN|   968           0.00087       -0.07292       -0.34375        0.00000
 BRILLOUIN|   969           0.00087       -0.07292       -0.32292        0.00000
 BRILLOUIN|   970           0.00087       -0.07292       -0.30208        0.00000
 BRILLOUIN|   971           0.00087       -0.07292       -0.28125        0.00000
 BRILLOUIN|   972           0.00087       -0.07292       -0.26042        0.00000
 BRILLOUIN|   973           0.00087       -0.07292       -0.23958        0.00000
 BRILLOUIN|   974           0.00087       -0.07292       -0.21875        0.00000
 BRILLOUIN|   975           0.00087       -0.07292       -0.19792        0.00000
 BRILLOUIN|   976           0.00087       -0.07292       -0.17708        0.00000
 BRILLOUIN|   977           0.00087       -0.07292       -0.15625        0.00000
 BRILLOUIN|   978           0.00087       -0.07292       -0.13542        0.00000
 BRILLOUIN|   979           0.00087       -0.07292       -0.11458        0.00000
 BRILLOUIN|   980           0.00087       -0.07292       -0.09375        0.00000
 BRILLOUIN|   981           0.00087       -0.07292       -0.07292        0.00000
 BRILLOUIN|   982           0.00087       -0.07292       -0.05208        0.00000
 BRILLOUIN|   983           0.00087       -0.07292       -0.03125        0.00000
 BRILLOUIN|   984           0.00087       -0.07292       -0.01042        0.00000
 BRILLOUIN|   985           0.00087       -0.07292        0.01042        0.00000
 BRILLOUIN|   986           0.00087       -0.07292        0.03125        0.00000
 BRILLOUIN|   987           0.00087       -0.07292        0.05208        0.00000
 BRILLOUIN|   988           0.00087       -0.07292        0.07292        0.00000
 BRILLOUIN|   989           0.00087       -0.07292        0.09375        0.00000
 BRILLOUIN|   990           0.00087       -0.07292        0.11458        0.00000
 BRILLOUIN|   991           0.00087       -0.07292        0.13542        0.00000
 BRILLOUIN|   992           0.00087       -0.07292        0.15625        0.00000
 BRILLOUIN|   993           0.00087       -0.07292        0.17708        0.00000
 BRILLOUIN|   994           0.00087       -0.07292        0.19792        0.00000
 BRILLOUIN|   995           0.00087       -0.07292        0.21875        0.00000
 BRILLOUIN|   996           0.00087       -0.07292        0.23958        0.00000
 BRILLOUIN|   997           0.00087       -0.07292        0.26042        0.00000
 BRILLOUIN|   998           0.00087       -0.07292        0.28125        0.00000
 BRILLOUIN|   999           0.00087       -0.07292        0.30208        0.00000
 BRILLOUIN|  1000           0.00087       -0.07292        0.32292        0.00000
 BRILLOUIN|  1001           0.00087       -0.07292        0.34375        0.00000
 BRILLOUIN|  1002           0.00087       -0.07292        0.36458        0.00000
 BRILLOUIN|  1003           0.00087       -0.07292        0.38542        0.00000
 BRILLOUIN|  1004           0.00087       -0.07292        0.40625        0.00000
 BRILLOUIN|  1005           0.00087       -0.07292        0.42708        0.00000
 BRILLOUIN|  1006           0.00087       -0.07292        0.44792        0.00000
 BRILLOUIN|  1007           0.00087       -0.07292        0.46875        0.00000
 BRILLOUIN|  1008           0.00087       -0.07292        0.48958        0.00000
 BRILLOUIN|  1009           0.00087       -0.05208       -0.48958        0.00000
 BRILLOUIN|  1010           0.00087       -0.05208       -0.46875        0.00000
 BRILLOUIN|  1011           0.00087       -0.05208       -0.44792        0.00000
 BRILLOUIN|  1012           0.00087       -0.05208       -0.42708        0.00000
 BRILLOUIN|  1013           0.00087       -0.05208       -0.40625        0.00000
 BRILLOUIN|  1014           0.00087       -0.05208       -0.38542        0.00000
 BRILLOUIN|  1015           0.00087       -0.05208       -0.36458        0.00000
 BRILLOUIN|  1016           0.00087       -0.05208       -0.34375        0.00000
 BRILLOUIN|  1017           0.00087       -0.05208       -0.32292        0.00000
 BRILLOUIN|  1018           0.00087       -0.05208       -0.30208        0.00000
 BRILLOUIN|  1019           0.00087       -0.05208       -0.28125        0.00000
 BRILLOUIN|  1020           0.00087       -0.05208       -0.26042        0.00000
 BRILLOUIN|  1021           0.00087       -0.05208       -0.23958        0.00000
 BRILLOUIN|  1022           0.00087       -0.05208       -0.21875        0.00000
 BRILLOUIN|  1023           0.00087       -0.05208       -0.19792        0.00000
 BRILLOUIN|  1024           0.00087       -0.05208       -0.17708        0.00000
 BRILLOUIN|  1025           0.00087       -0.05208       -0.15625        0.00000
 BRILLOUIN|  1026           0.00087       -0.05208       -0.13542        0.00000
 BRILLOUIN|  1027           0.00087       -0.05208       -0.11458        0.00000
 BRILLOUIN|  1028           0.00087       -0.05208       -0.09375        0.00000
 BRILLOUIN|  1029           0.00087       -0.05208       -0.07292        0.00000
 BRILLOUIN|  1030           0.00087       -0.05208       -0.05208        0.00000
 BRILLOUIN|  1031           0.00087       -0.05208       -0.03125        0.00000
 BRILLOUIN|  1032           0.00087       -0.05208       -0.01042        0.00000
 BRILLOUIN|  1033           0.00087       -0.05208        0.01042        0.00000
 BRILLOUIN|  1034           0.00087       -0.05208        0.03125        0.00000
 BRILLOUIN|  1035           0.00087       -0.05208        0.05208        0.00000
 BRILLOUIN|  1036           0.00087       -0.05208        0.07292        0.00000
 BRILLOUIN|  1037           0.00087       -0.05208        0.09375        0.00000
 BRILLOUIN|  1038           0.00087       -0.05208        0.11458        0.00000
 BRILLOUIN|  1039           0.00087       -0.05208        0.13542        0.00000
 BRILLOUIN|  1040           0.00087       -0.05208        0.15625        0.00000
 BRILLOUIN|  1041           0.00087       -0.05208        0.17708        0.00000
 BRILLOUIN|  1042           0.00087       -0.05208        0.19792        0.00000
 BRILLOUIN|  1043           0.00087       -0.05208        0.21875        0.00000
 BRILLOUIN|  1044           0.00087       -0.05208        0.23958        0.00000
 BRILLOUIN|  1045           0.00087       -0.05208        0.26042        0.00000
 BRILLOUIN|  1046           0.00087       -0.05208        0.28125        0.00000
 BRILLOUIN|  1047           0.00087       -0.05208        0.30208        0.00000
 BRILLOUIN|  1048           0.00087       -0.05208        0.32292        0.00000
 BRILLOUIN|  1049           0.00087       -0.05208        0.34375        0.00000
 BRILLOUIN|  1050           0.00087       -0.05208        0.36458        0.00000
 BRILLOUIN|  1051           0.00087       -0.05208        0.38542        0.00000
 BRILLOUIN|  1052           0.00087       -0.05208        0.40625        0.00000
 BRILLOUIN|  1053           0.00087       -0.05208        0.42708        0.00000
 BRILLOUIN|  1054           0.00087       -0.05208        0.44792        0.00000
 BRILLOUIN|  1055           0.00087       -0.05208        0.46875        0.00000
 BRILLOUIN|  1056           0.00087       -0.05208        0.48958        0.00000
 BRILLOUIN|  1057           0.00087       -0.03125       -0.48958        0.00000
 BRILLOUIN|  1058           0.00087       -0.03125       -0.46875        0.00000
 BRILLOUIN|  1059           0.00087       -0.03125       -0.44792        0.00000
 BRILLOUIN|  1060           0.00087       -0.03125       -0.42708        0.00000
 BRILLOUIN|  1061           0.00087       -0.03125       -0.40625        0.00000
 BRILLOUIN|  1062           0.00087       -0.03125       -0.38542        0.00000
 BRILLOUIN|  1063           0.00087       -0.03125       -0.36458        0.00000
 BRILLOUIN|  1064           0.00087       -0.03125       -0.34375        0.00000
 BRILLOUIN|  1065           0.00087       -0.03125       -0.32292        0.00000
 BRILLOUIN|  1066           0.00087       -0.03125       -0.30208        0.00000
 BRILLOUIN|  1067           0.00087       -0.03125       -0.28125        0.00000
 BRILLOUIN|  1068           0.00087       -0.03125       -0.26042        0.00000
 BRILLOUIN|  1069           0.00087       -0.03125       -0.23958        0.00000
 BRILLOUIN|  1070           0.00087       -0.03125       -0.21875        0.00000
 BRILLOUIN|  1071           0.00087       -0.03125       -0.19792        0.00000
 BRILLOUIN|  1072           0.00087       -0.03125       -0.17708        0.00000
 BRILLOUIN|  1073           0.00087       -0.03125       -0.15625        0.00000
 BRILLOUIN|  1074           0.00087       -0.03125       -0.13542        0.00000
 BRILLOUIN|  1075           0.00087       -0.03125       -0.11458        0.00000
 BRILLOUIN|  1076           0.00087       -0.03125       -0.09375        0.00000
 BRILLOUIN|  1077           0.00087       -0.03125       -0.07292        0.00000
 BRILLOUIN|  1078           0.00087       -0.03125       -0.05208        0.00000
 BRILLOUIN|  1079           0.00087       -0.03125       -0.03125        0.00000
 BRILLOUIN|  1080           0.00087       -0.03125       -0.01042        0.00000
 BRILLOUIN|  1081           0.00087       -0.03125        0.01042        0.00000
 BRILLOUIN|  1082           0.00087       -0.03125        0.03125        0.00000
 BRILLOUIN|  1083           0.00087       -0.03125        0.05208        0.00000
 BRILLOUIN|  1084           0.00087       -0.03125        0.07292        0.00000
 BRILLOUIN|  1085           0.00087       -0.03125        0.09375        0.00000
 BRILLOUIN|  1086           0.00087       -0.03125        0.11458        0.00000
 BRILLOUIN|  1087           0.00087       -0.03125        0.13542        0.00000
 BRILLOUIN|  1088           0.00087       -0.03125        0.15625        0.00000
 BRILLOUIN|  1089           0.00087       -0.03125        0.17708        0.00000
 BRILLOUIN|  1090           0.00087       -0.03125        0.19792        0.00000
 BRILLOUIN|  1091           0.00087       -0.03125        0.21875        0.00000
 BRILLOUIN|  1092           0.00087       -0.03125        0.23958        0.00000
 BRILLOUIN|  1093           0.00087       -0.03125        0.26042        0.00000
 BRILLOUIN|  1094           0.00087       -0.03125        0.28125        0.00000
 BRILLOUIN|  1095           0.00087       -0.03125        0.30208        0.00000
 BRILLOUIN|  1096           0.00087       -0.03125        0.32292        0.00000
 BRILLOUIN|  1097           0.00087       -0.03125        0.34375        0.00000
 BRILLOUIN|  1098           0.00087       -0.03125        0.36458        0.00000
 BRILLOUIN|  1099           0.00087       -0.03125        0.38542        0.00000
 BRILLOUIN|  1100           0.00087       -0.03125        0.40625        0.00000
 BRILLOUIN|  1101           0.00087       -0.03125        0.42708        0.00000
 BRILLOUIN|  1102           0.00087       -0.03125        0.44792        0.00000
 BRILLOUIN|  1103           0.00087       -0.03125        0.46875        0.00000
 BRILLOUIN|  1104           0.00087       -0.03125        0.48958        0.00000
 BRILLOUIN|  1105           0.00087       -0.01042       -0.48958        0.00000
 BRILLOUIN|  1106           0.00087       -0.01042       -0.46875        0.00000
 BRILLOUIN|  1107           0.00087       -0.01042       -0.44792        0.00000
 BRILLOUIN|  1108           0.00087       -0.01042       -0.42708        0.00000
 BRILLOUIN|  1109           0.00087       -0.01042       -0.40625        0.00000
 BRILLOUIN|  1110           0.00087       -0.01042       -0.38542        0.00000
 BRILLOUIN|  1111           0.00087       -0.01042       -0.36458        0.00000
 BRILLOUIN|  1112           0.00087       -0.01042       -0.34375        0.00000
 BRILLOUIN|  1113           0.00087       -0.01042       -0.32292        0.00000
 BRILLOUIN|  1114           0.00087       -0.01042       -0.30208        0.00000
 BRILLOUIN|  1115           0.00087       -0.01042       -0.28125        0.00000
 BRILLOUIN|  1116           0.00087       -0.01042       -0.26042        0.00000
 BRILLOUIN|  1117           0.00087       -0.01042       -0.23958        0.00000
 BRILLOUIN|  1118           0.00087       -0.01042       -0.21875        0.00000
 BRILLOUIN|  1119           0.00087       -0.01042       -0.19792        0.00000
 BRILLOUIN|  1120           0.00087       -0.01042       -0.17708        0.00000
 BRILLOUIN|  1121           0.00087       -0.01042       -0.15625        0.00000
 BRILLOUIN|  1122           0.00087       -0.01042       -0.13542        0.00000
 BRILLOUIN|  1123           0.00087       -0.01042       -0.11458        0.00000
 BRILLOUIN|  1124           0.00087       -0.01042       -0.09375        0.00000
 BRILLOUIN|  1125           0.00087       -0.01042       -0.07292        0.00000
 BRILLOUIN|  1126           0.00087       -0.01042       -0.05208        0.00000
 BRILLOUIN|  1127           0.00087       -0.01042       -0.03125        0.00000
 BRILLOUIN|  1128           0.00087       -0.01042       -0.01042        0.00000
 BRILLOUIN|  1129           0.00087       -0.01042        0.01042        0.00000
 BRILLOUIN|  1130           0.00087       -0.01042        0.03125        0.00000
 BRILLOUIN|  1131           0.00087       -0.01042        0.05208        0.00000
 BRILLOUIN|  1132           0.00087       -0.01042        0.07292        0.00000
 BRILLOUIN|  1133           0.00087       -0.01042        0.09375        0.00000
 BRILLOUIN|  1134           0.00087       -0.01042        0.11458        0.00000
 BRILLOUIN|  1135           0.00087       -0.01042        0.13542        0.00000
 BRILLOUIN|  1136           0.00087       -0.01042        0.15625        0.00000
 BRILLOUIN|  1137           0.00087       -0.01042        0.17708        0.00000
 BRILLOUIN|  1138           0.00087       -0.01042        0.19792        0.00000
 BRILLOUIN|  1139           0.00087       -0.01042        0.21875        0.00000
 BRILLOUIN|  1140           0.00087       -0.01042        0.23958        0.00000
 BRILLOUIN|  1141           0.00087       -0.01042        0.26042        0.00000
 BRILLOUIN|  1142           0.00087       -0.01042        0.28125        0.00000
 BRILLOUIN|  1143           0.00087       -0.01042        0.30208        0.00000
 BRILLOUIN|  1144           0.00087       -0.01042        0.32292        0.00000
 BRILLOUIN|  1145           0.00087       -0.01042        0.34375        0.00000
 BRILLOUIN|  1146           0.00087       -0.01042        0.36458        0.00000
 BRILLOUIN|  1147           0.00087       -0.01042        0.38542        0.00000
 BRILLOUIN|  1148           0.00087       -0.01042        0.40625        0.00000
 BRILLOUIN|  1149           0.00087       -0.01042        0.42708        0.00000
 BRILLOUIN|  1150           0.00087       -0.01042        0.44792        0.00000
 BRILLOUIN|  1151           0.00087       -0.01042        0.46875        0.00000
 BRILLOUIN|  1152           0.00087       -0.01042        0.48958        0.00000
 *******************************************************************************

 *******************************************************************************
 *******************************************************************************
 **                                                                           **
 **     #####                         ##              ##                      **
 **    ##   ##            ##          ##              ##                      **
 **   ##     ##                       ##            ######                    **
 **   ##     ##  ##   ##  ##   #####  ##  ##   ####   ##    #####    #####    **
 **   ##     ##  ##   ##  ##  ##      ## ##   ##      ##   ##   ##  ##   ##   **
 **   ##  ## ##  ##   ##  ##  ##      ####     ###    ##   ######   ######    **
 **    ##  ###   ##   ##  ##  ##      ## ##      ##   ##   ##       ##        **
 **     #######   #####   ##   #####  ##  ##  ####    ##    #####   ##        **
 **           ##                                                    ##        **
 **                                                                           **
 **                                                ... make the atoms dance   **
 **                                                                           **
 **            Copyright (C) by CP2K developers group (2000-2025)             **
 **                      J. Chem. Phys. 152, 194103 (2020)                    **
 **                                                                           **
 *******************************************************************************

 DFT| Spin restricted Kohn-Sham (RKS) calculation                            RKS
 DFT| Multiplicity                                                             1
 DFT| Number of spin states                                                    1
 DFT| Charge                                                                   0
 DFT| Self-interaction correction (SIC)                                       NO
 DFT| Cutoffs: density                                              1.000000E-10
 DFT|          gradient                                             1.000000E-10
 DFT|          tau                                                  1.000000E-10
 DFT|          cutoff_smoothing_range                               0.000000E+00
 DFT| XC density smoothing                                                  NONE
 DFT| XC derivatives                                                          PW

 FUNCTIONAL| PBE:
 FUNCTIONAL| J.P.Perdew, K.Burke, M.Ernzerhof, Phys. Rev. Letter, vol. 77, n 18,
 FUNCTIONAL|  pp. 3865-3868, (1996) {spin unpolarized}                          


 QS| Method:                                                                 GPW
 QS| Density plane wave grid type                        NON-SPHERICAL FULLSPACE
 QS| Number of grid levels:                                                    4
 QS| Density cutoff [a.u.]:                                                500.0
 QS| Multi grid cutoff [a.u.]: 1) grid level                               500.0
 QS|                           2) grid level                               166.7
 QS|                           3) grid level                                55.6
 QS|                           4) grid level                                18.5
 QS| Grid level progression factor:                                          3.0
 QS| Relative density cutoff [a.u.]:                                        50.0
 QS| Interaction thresholds: eps_pgf_orb:                                1.0E-12
 QS|                         eps_filter_matrix:                          0.0E+00
 QS|                         eps_core_charge:                            1.0E-14
 QS|                         eps_rho_gspace:                             1.0E-12
 QS|                         eps_rho_rspace:                             1.0E-12
 QS|                         eps_gvg_rspace:                             1.0E-06
 QS|                         eps_ppl:                                    1.0E-02
 QS|                         eps_ppnl:                                   1.0E-08


 ATOMIC KIND INFORMATION

  1. Atomic kind: B                                     Number of atoms:       1

     Orbital Basis Set                                 aug-SZV-MOLOPT-GTH-tier-2

       Number of orbital shell sets:                                           1
       Number of orbital shells:                                               5
       Number of primitive Cartesian functions:                                5
       Number of Cartesian basis functions:                                   14
       Number of spherical basis functions:                                   13
       Norm type:                                                              2

       Normalised Cartesian orbitals:

                        Set   Shell   Orbital            Exponent    Coefficient

                          1       1    2s                0.070000       0.000000
                                                         0.101655      -0.057697
                                                         0.329920      -0.219689
                                                         0.915484       0.050494
                                                         3.053444       0.252403

                          1       2    3s                0.070000       0.096981
                                                         0.101655      -0.000080
                                                         0.329920       0.000294
                                                         0.915484       0.000161
                                                         3.053444       0.000000

                          1       3    3px               0.070000       0.000000
                                                         0.101655      -0.024010
                                                         0.329920      -0.182602
                                                         0.915484      -0.388731
                                                         3.053444      -0.570047
                          1       3    3py               0.070000       0.000000
                                                         0.101655      -0.024010
                                                         0.329920      -0.182602
                                                         0.915484      -0.388731
                                                         3.053444      -0.570047
                          1       3    3pz               0.070000       0.000000
                                                         0.101655      -0.024010
                                                         0.329920      -0.182602
                                                         0.915484      -0.388731
                                                         3.053444      -0.570047

                          1       4    4px               0.070000       0.057413
                                                         0.101655      -0.011874
                                                         0.329920       0.011088
                                                         0.915484       0.026429
                                                         3.053444       0.000000
                          1       4    4py               0.070000       0.057413
                                                         0.101655      -0.011874
                                                         0.329920       0.011088
                                                         0.915484       0.026429
                                                         3.053444       0.000000
                          1       4    4pz               0.070000       0.057413
                                                         0.101655      -0.011874
                                                         0.329920       0.011088
                                                         0.915484       0.026429
                                                         3.053444       0.000000

                          1       5    4dx2              0.070000       0.000071
                                                         0.101655       0.000150
                                                         0.329920       0.236125
                                                         0.915484      -0.007588
                                                         3.053444       0.000000
                          1       5    4dxy              0.070000       0.000123
                                                         0.101655       0.000260
                                                         0.329920       0.408980
                                                         0.915484      -0.013142
                                                         3.053444       0.000000
                          1       5    4dxz              0.070000       0.000123
                                                         0.101655       0.000260
                                                         0.329920       0.408980
                                                         0.915484      -0.013142
                                                         3.053444       0.000000
                          1       5    4dy2              0.070000       0.000071
                                                         0.101655       0.000150
                                                         0.329920       0.236125
                                                         0.915484      -0.007588
                                                         3.053444       0.000000
                          1       5    4dyz              0.070000       0.000123
                                                         0.101655       0.000260
                                                         0.329920       0.408980
                                                         0.915484      -0.013142
                                                         3.053444       0.000000
                          1       5    4dz2              0.070000       0.000071
                                                         0.101655       0.000150
                                                         0.329920       0.236125
                                                         0.915484      -0.007588
                                                         3.053444       0.000000

     RI Auxiliary Basis Set             RI_aug-SZV-MOLOPT-GTH-tier-2_N_RI_014_s_

       Number of orbital shell sets:                                           6
       Number of orbital shells:                                               6
       Number of primitive Cartesian functions:                                6
       Number of Cartesian basis functions:                                   15
       Number of spherical basis functions:                                   14
       Norm type:                                                              2

       Normalised Cartesian orbitals:

                        Set   Shell   Orbital            Exponent    Coefficient

                          1       1    1s                0.176183       0.193813

                          2       1    4px               0.190207       0.179049
                          2       1    4py               0.190207       0.179049
                          2       1    4pz               0.190207       0.179049

                          3       1    2s                0.494536       0.420299

                          4       1    6dx2              0.503217       0.494859
                          4       1    6dxy              0.503217       0.857120
                          4       1    6dxz              0.503217       0.857120
                          4       1    6dy2              0.503217       0.494859
                          4       1    6dyz              0.503217       0.857120
                          4       1    6dz2              0.503217       0.494859

                          5       1    5px               0.738822       0.976371
                          5       1    5py               0.738822       0.976371
                          5       1    5pz               0.738822       0.976371

                          6       1    3s                3.130453       1.677318

       Atomic covalent radius [Angstrom]:                                  0.820

       Atomic van der Waals radius [Angstrom]:                             1.920

     GTH Potential information for                                    GTH-PBE-q3

       Description:                       Goedecker-Teter-Hutter pseudopotential
                                           Goedecker et al., PRB 54, 1703 (1996)
                                          Hartwigsen et al., PRB 58, 3641 (1998)
                                                      Krack, TCA 114, 145 (2005)

       Gaussian exponent of the core charge distribution:               2.848129
       Electronic configuration (s p d ...):                               2   1

       Parameters of the local part of the GTH pseudopotential:

                          rloc        C1          C2          C3          C4
                        0.418991   -5.859462    0.903756

       Parameters of the non-local part of the GTH (SOC) pseudopotential:

                   l      r(l)      h(i,j,l)
                                    k(i,j,l)
                   0    0.371320    6.297280
                   1    0.364563    0.000000
                                    0.000855

  2. Atomic kind: N                                     Number of atoms:       1

     Orbital Basis Set                                 aug-SZV-MOLOPT-GTH-tier-2

       Number of orbital shell sets:                                           1
       Number of orbital shells:                                               5
       Number of primitive Cartesian functions:                                6
       Number of Cartesian basis functions:                                   14
       Number of spherical basis functions:                                   13
       Norm type:                                                              2

       Normalised Cartesian orbitals:

                        Set   Shell   Orbital            Exponent    Coefficient

                          1       1    2s                0.070000       0.000000
                                                         0.112012      -0.019197
                                                         0.333802      -0.182244
                                                         0.888575      -0.289383
                                                         2.542637       0.139177
                                                         7.341988       0.360561

                          1       2    3s                0.070000       0.092556
                                                         0.112012      -0.004523
                                                         0.333802       0.017208
                                                         0.888575       0.059493
                                                         2.542637       0.000000
                                                         7.341988       0.000000

                          1       3    3px               0.070000       0.000000
                                                         0.112012      -0.013986
                                                         0.333802      -0.144894
                                                         0.888575      -0.501079
                                                         2.542637      -0.973969
                                                         7.341988      -1.188719
                          1       3    3py               0.070000       0.000000
                                                         0.112012      -0.013986
                                                         0.333802      -0.144894
                                                         0.888575      -0.501079
                                                         2.542637      -0.973969
                                                         7.341988      -1.188719
                          1       3    3pz               0.070000       0.000000
                                                         0.112012      -0.013986
                                                         0.333802      -0.144894
                                                         0.888575      -0.501079
                                                         2.542637      -0.973969
                                                         7.341988      -1.188719

                          1       4    4px               0.070000       0.019777
                                                         0.112012       0.010521
                                                         0.333802       0.223757
                                                         0.888575       0.038703
                                                         2.542637       0.000000
                                                         7.341988       0.000000
                          1       4    4py               0.070000       0.019777
                                                         0.112012       0.010521
                                                         0.333802       0.223757
                                                         0.888575       0.038703
                                                         2.542637       0.000000
                                                         7.341988       0.000000
                          1       4    4pz               0.070000       0.019777
                                                         0.112012       0.010521
                                                         0.333802       0.223757
                                                         0.888575       0.038703
                                                         2.542637       0.000000
                                                         7.341988       0.000000

                          1       5    4dx2              0.070000       0.012523
                                                         0.112012      -0.007680
                                                         0.333802       0.106561
                                                         0.888575       0.393255
                                                         2.542637       0.000000
                                                         7.341988       0.000000
                          1       5    4dxy              0.070000       0.021691
                                                         0.112012      -0.013303
                                                         0.333802       0.184569
                                                         0.888575       0.681137
                                                         2.542637       0.000000
                                                         7.341988       0.000000
                          1       5    4dxz              0.070000       0.021691
                                                         0.112012      -0.013303
                                                         0.333802       0.184569
                                                         0.888575       0.681137
                                                         2.542637       0.000000
                                                         7.341988       0.000000
                          1       5    4dy2              0.070000       0.012523
                                                         0.112012      -0.007680
                                                         0.333802       0.106561
                                                         0.888575       0.393255
                                                         2.542637       0.000000
                                                         7.341988       0.000000
                          1       5    4dyz              0.070000       0.021691
                                                         0.112012      -0.013303
                                                         0.333802       0.184569
                                                         0.888575       0.681137
                                                         2.542637       0.000000
                                                         7.341988       0.000000
                          1       5    4dz2              0.070000       0.012523
                                                         0.112012      -0.007680
                                                         0.333802       0.106561
                                                         0.888575       0.393255
                                                         2.542637       0.000000
                                                         7.341988       0.000000

     RI Auxiliary Basis Set             RI_aug-SZV-MOLOPT-GTH-tier-2_N_RI_033_s_

       Number of orbital shell sets:                                          13
       Number of orbital shells:                                              13
       Number of primitive Cartesian functions:                               13
       Number of Cartesian basis functions:                                   38
       Number of spherical basis functions:                                   33
       Norm type:                                                              2

       Normalised Cartesian orbitals:

                        Set   Shell   Orbital            Exponent    Coefficient

                          1       1    8px               0.128755       0.109937
                          1       1    8py               0.128755       0.109937
                          1       1    8pz               0.128755       0.109937

                          2       1    1s                0.177993       0.195305

                          3       1    2s                0.352789       0.326247

                          4       1   11dx2              0.604085       0.681289
                          4       1   11dxy              0.604085       1.180027
                          4       1   11dxz              0.604085       1.180027
                          4       1   11dy2              0.604085       0.681289
                          4       1   11dyz              0.604085       1.180027
                          4       1   11dz2              0.604085       0.681289

                          5       1    9px               0.668095       0.860970
                          5       1    9py               0.668095       0.860970
                          5       1    9pz               0.668095       0.860970

                          6       1    3s                0.722621       0.558590

                          7       1   13fx3              1.003298       1.483105
                          7       1   13fx2y             1.003298       3.316324
                          7       1   13fx2z             1.003298       3.316324
                          7       1   13fxy2             1.003298       3.316324
                          7       1   13fxyz             1.003298       5.744042
                          7       1   13fxz2             1.003298       3.316324
                          7       1   13fy3              1.003298       1.483105
                          7       1   13fy2z             1.003298       3.316324
                          7       1   13fyz2             1.003298       3.316324
                          7       1   13fz3              1.003298       1.483105

                          8       1    4s                1.475569       0.954179

                          9       1   10px               1.864193       3.104944
                          9       1   10py               1.864193       3.104944
                          9       1   10pz               1.864193       3.104944

                         10       1    5s                2.970298       1.612539

                         11       1   12dx2              3.000284      11.257544
                         11       1   12dxy              3.000284      19.498638
                         11       1   12dxz              3.000284      19.498638
                         11       1   12dy2              3.000284      11.257544
                         11       1   12dyz              3.000284      19.498638
                         11       1   12dz2              3.000284      11.257544

                         12       1    6s                6.032716       2.743435

                         13       1    7s               12.241787       4.664378

       Atomic covalent radius [Angstrom]:                                  0.750

       Atomic van der Waals radius [Angstrom]:                             1.550

     GTH Potential information for                                    GTH-PBE-q5

       Description:                       Goedecker-Teter-Hutter pseudopotential
                                           Goedecker et al., PRB 54, 1703 (1996)
                                          Hartwigsen et al., PRB 58, 3641 (1998)
                                                      Krack, TCA 114, 145 (2005)

       Gaussian exponent of the core charge distribution:               6.208322
       Electronic configuration (s p d ...):                               2   3

       Parameters of the local part of the GTH pseudopotential:

                          rloc        C1          C2          C3          C4
                        0.283791  -12.415226    1.868096

       Parameters of the non-local part of the GTH (SOC) pseudopotential:

                   l      r(l)      h(i,j,l)
                                    k(i,j,l)
                   0    0.255405   13.630263
                   1    0.245495    0.000000
                                    0.004148


 MOLECULE KIND INFORMATION


 All atoms are their own molecule, skipping detailed information


 TOTAL NUMBERS AND MAXIMUM NUMBERS

  Total number of            - Atomic kinds:                                   2
                             - Atoms:                                          2
                             - Shell sets:                                     2
                             - Shells:                                        10
                             - Primitive Cartesian functions:                 11
                             - Cartesian basis functions:                     28
                             - Spherical basis functions:                     26

  Maximum angular momentum of- Orbital basis functions:                        2
                             - Local part of the GTH pseudopotential:          2
                             - Non-local part of the GTH pseudopotential:      1


 MODULE QUICKSTEP: ATOMIC COORDINATES IN ANGSTROM

   Atom Kind Element         X             Y             Z       Z(eff)     Mass
      1    1 B     5      0.000000      1.449303      7.500000   3.0000  10.8110
      2    2 N     7      1.255134      0.724652      7.500000   5.0000  14.0067



 SCF PARAMETERS         Density guess:                                    ATOMIC
                        --------------------------------------------------------
                        max_scf:                                             500
                        max_scf_history:                                       0
                        max_diis:                                              4
                        --------------------------------------------------------
                        eps_scf:                                        1.00E-09
                        eps_scf_history:                                0.00E+00
                        eps_diis:                                       1.00E-01
                        eps_eigval:                                     1.00E-05
                        --------------------------------------------------------
                        level_shift [a.u.]:                             0.000000
                        added MOs                                        22    0
                        --------------------------------------------------------
                        Mixing method:                            BROYDEN_MIXING
                                                charge density mixing in g-space
                        --------------------------------------------------------
                        No outer SCF

 PW_GRID| Information for grid number                                          1
 PW_GRID| Grid distributed over                                   128 processors
 PW_GRID| Real space group dimensions                                     8   16
 PW_GRID| the grid is blocked:                                               YES
 PW_GRID| Cutoff [a.u.]                                                    500.0
 PW_GRID| spherical cutoff:                                                   NO
 PW_GRID|   Bounds   1            -24      23                Points:          48
 PW_GRID|   Bounds   2            -24      23                Points:          48
 PW_GRID|   Bounds   3           -144     143                Points:         288
 PW_GRID| Volume element (a.u.^3)  0.8323E-03     Volume (a.u.^3)       552.2884
 PW_GRID| Grid span                                                    FULLSPACE
 PW_GRID|   Distribution                         Average         Max         Min
 PW_GRID|   G-Vectors                             5184.0        5184        5184
 PW_GRID|   G-Rays                                 108.0         108         108
 PW_GRID|   Real Space Points                     5184.0        5184        5184

 PW_GRID| Information for grid number                                          2
 PW_GRID| Number of the reference grid                                         1
 PW_GRID| Grid distributed over                                   128 processors
 PW_GRID| Real space group dimensions                                     8   16
 PW_GRID| the grid is blocked:                                                NO
 PW_GRID| Cutoff [a.u.]                                                    166.7
 PW_GRID| spherical cutoff:                                                   NO
 PW_GRID|   Bounds   1            -13      13                Points:          27
 PW_GRID|   Bounds   2            -13      13                Points:          27
 PW_GRID|   Bounds   3            -90      89                Points:         180
 PW_GRID| Volume element (a.u.^3)  0.4209E-02     Volume (a.u.^3)       552.2884
 PW_GRID| Grid span                                                    FULLSPACE
 PW_GRID|   Distribution                         Average         Max         Min
 PW_GRID|   G-Vectors                             1025.2        2916           0
 PW_GRID|   G-Rays                                  38.0         108           0
 PW_GRID|   Real Space Points                     1025.2        1440         540

 PW_GRID| Information for grid number                                          3
 PW_GRID| Number of the reference grid                                         1
 PW_GRID| Grid distributed over                                   128 processors
 PW_GRID| Real space group dimensions                                     8   16
 PW_GRID| the grid is blocked:                                                NO
 PW_GRID| Cutoff [a.u.]                                                     55.6
 PW_GRID| spherical cutoff:                                                   NO
 PW_GRID|   Bounds   1             -7       7                Points:          15
 PW_GRID|   Bounds   2             -7       7                Points:          15
 PW_GRID|   Bounds   3            -48      47                Points:          96
 PW_GRID| Volume element (a.u.^3)  0.2557E-01     Volume (a.u.^3)       552.2884
 PW_GRID| Grid span                                                    FULLSPACE
 PW_GRID|   Distribution                         Average         Max         Min
 PW_GRID|   G-Vectors                              168.8        1620           0
 PW_GRID|   G-Rays                                  11.2         108           0
 PW_GRID|   Real Space Points                      168.8         192           0

 PW_GRID| Information for grid number                                          4
 PW_GRID| Number of the reference grid                                         1
 PW_GRID| Grid distributed over                                   128 processors
 PW_GRID| Real space group dimensions                                     8   16
 PW_GRID| the grid is blocked:                                                NO
 PW_GRID| Cutoff [a.u.]                                                     18.5
 PW_GRID| spherical cutoff:                                                   NO
 PW_GRID|   Bounds   1             -4       4                Points:           9
 PW_GRID|   Bounds   2             -4       4                Points:           9
 PW_GRID|   Bounds   3            -30      29                Points:          60
 PW_GRID| Volume element (a.u.^3)  0.1136         Volume (a.u.^3)       552.2884
 PW_GRID| Grid span                                                    FULLSPACE
 PW_GRID|   Distribution                         Average         Max         Min
 PW_GRID|   G-Vectors                               38.0         810           0
 PW_GRID|   G-Rays                                   4.2          90           0
 PW_GRID|   Real Space Points                       38.0         120           0

 POISSON| Solver                                                        PERIODIC
 POISSON| Periodicity                                                        XYZ

 *** WARNING in pw_env_methods.F:746 :: The selected periodicities in the ***
 *** sections &CELL and &POISSON do not match                             ***


 RS_GRID| Information for grid number                                          1
 RS_GRID|   Bounds   1            -24      23                Points:          48
 RS_GRID|   Bounds   2            -24      23                Points:          48
 RS_GRID|   Bounds   3           -144     143                Points:         288
 RS_GRID| Real space distribution over                                128 groups
 RS_GRID| Real space distribution along direction                              3
 RS_GRID| Border size                                                         54
 RS_GRID|   Distribution                         Average         Max         Min
 RS_GRID|   Planes                                 110.2         111         110

 RS_GRID| Information for grid number                                          2
 RS_GRID|   Bounds   1            -13      13                Points:          27
 RS_GRID|   Bounds   2            -13      13                Points:          27
 RS_GRID|   Bounds   3            -90      89                Points:         180
 RS_GRID| Real space fully replicated
 RS_GRID| Group size                                                           1

 RS_GRID| Information for grid number                                          3
 RS_GRID|   Bounds   1             -7       7                Points:          15
 RS_GRID|   Bounds   2             -7       7                Points:          15
 RS_GRID|   Bounds   3            -48      47                Points:          96
 RS_GRID| Real space fully replicated
 RS_GRID| Group size                                                           1

 RS_GRID| Information for grid number                                          4
 RS_GRID|   Bounds   1             -4       4                Points:           9
 RS_GRID|   Bounds   2             -4       4                Points:           9
 RS_GRID|   Bounds   3            -30      29                Points:          60
 RS_GRID| Real space fully replicated
 RS_GRID| Group size                                                           1

 Extrapolation method: initial_guess

 Atomic guess: The first density matrix is obtained in terms of atomic orbitals
               and electronic configurations assigned to each atomic kind

 Guess for atomic kind: B

 Electronic structure
    Total number of core electrons                                          2.00
    Total number of valence electrons                                       3.00
    Total number of electrons                                               5.00
    Multiplicity                                                   not specified
    S   [  2.00] 2.00
    P      1.00


 *******************************************************************************
                  Iteration          Convergence                     Energy [au]
 *******************************************************************************
                          1        0.318287E-01                  -2.526530290476
                          2        0.130111E-01                  -2.527409258314
                          3        0.362461E-03                  -2.527664151253
                          4        0.212775E-07                  -2.527664329937

 Energy components [Hartree]           Total Energy ::           -2.527664329937
                                        Band Energy ::           -0.774157874948
                                     Kinetic Energy ::            1.432105792828
                                   Potential Energy ::           -3.959770122764
                                      Virial (-V/T) ::            2.764998328054
                                        Core Energy ::           -3.739058608706
                                          XC Energy ::           -0.778578427619
                                     Coulomb Energy ::            1.989972706388
                       Total Pseudopotential Energy ::           -5.202216582334
                       Local Pseudopotential Energy ::           -5.554780274858
                    Nonlocal Pseudopotential Energy ::            0.352563692524
                                        Confinement ::            0.310521808001

 Orbital energies  State     L     Occupation   Energy[a.u.]          Energy[eV]

                       1     0          2.000      -0.330590           -8.995816

                       1     1          1.000      -0.112978           -3.074276


 Total Electron Density at R=0:                                         0.000151

 Guess for atomic kind: N

 Electronic structure
    Total number of core electrons                                          2.00
    Total number of valence electrons                                       5.00
    Total number of electrons                                               7.00
    Multiplicity                                                   not specified
    S   [  2.00] 2.00
    P      3.00


 *******************************************************************************
                  Iteration          Convergence                     Energy [au]
 *******************************************************************************
                          1        0.279825                      -9.519702036083
                          2        0.203084                      -9.530037546193
                          3        0.554394E-03                  -9.542302744773
                          4        0.528449E-04                  -9.542302841836
                          5        0.297177E-04                  -9.542302842361
                          6        0.208869E-04                  -9.542302842484
                          7        0.550195E-07                  -9.542302842603

 Energy components [Hartree]           Total Energy ::           -9.542302842603
                                        Band Energy ::           -2.003604362155
                                     Kinetic Energy ::            6.761024631072
                                   Potential Energy ::          -16.303327473676
                                      Virial (-V/T) ::            2.411369335758
                                        Core Energy ::          -15.577117993880
                                          XC Energy ::           -2.176535633023
                                     Coulomb Energy ::            8.211350784299
                       Total Pseudopotential Energy ::          -22.374806510451
                       Local Pseudopotential Energy ::          -23.291549762728
                    Nonlocal Pseudopotential Energy ::            0.916743252277
                                        Confinement ::            0.366638854993

 Orbital energies  State     L     Occupation   Energy[a.u.]          Energy[eV]

                       1     0          2.000      -0.653124          -17.772414

                       1     1          3.000      -0.232452           -6.325340


 Total Electron Density at R=0:                                         0.000012
 Re-scaling the density matrix to get the right number of electrons
                  # Electrons              Trace(P)               Scaling factor
                            8                 8.000                        1.000

 Number of electrons:                                                          8
 Number of occupied orbitals:                                                  4
 Number of molecular orbitals:                                                26

 Number of orbital functions:                                                 26
 Number of independent orbital functions:                                     26


 SCF WAVEFUNCTION OPTIMIZATION

  Step     Update method      Time    Convergence         Total energy    Change
  ------------------------------------------------------------------------------
     1 NoMix/Diag. 0.10E+00    5.5     1.28173492       -12.8860237592 -1.29E+01
     2 Broy./Diag. 0.10E+00    5.6     0.06970426       -11.1675412356  1.72E+00
     3 Broy./Diag. 0.10E+00    5.7     0.39581581       -11.8610973407 -6.94E-01
     4 Broy./Diag. 0.10E+00    6.1     0.01882051       -12.5831449842 -7.22E-01
     5 Broy./Diag. 0.10E+00    5.7     0.12955538       -12.6776695177 -9.45E-02
     6 Broy./Diag. 0.10E+00    5.7     0.00566351       -12.7520476074 -7.44E-02
     7 Broy./Diag. 0.10E+00    5.7     0.04299276       -12.7971998100 -4.52E-02
     8 Broy./Diag. 0.10E+00    5.5     0.00324539       -12.8388305744 -4.16E-02
     9 Broy./Diag. 0.10E+00    6.4     0.02472780       -12.8447524360 -5.92E-03
    10 Broy./Diag. 0.10E+00    5.7     0.00082354       -12.8617407869 -1.70E-02
    11 Broy./Diag. 0.10E+00    5.6     0.01003615       -12.8566321218  5.11E-03
    12 Broy./Diag. 0.10E+00    5.7     0.00042582       -12.8601475201 -3.52E-03
    13 Broy./Diag. 0.10E+00    5.7     0.00291615       -12.8643250218 -4.18E-03
    14 Broy./Diag. 0.10E+00    6.1     0.00101882       -12.8665930870 -2.27E-03
    15 Broy./Diag. 0.10E+00    6.0     0.00067164       -12.8686582476 -2.07E-03
    16 Broy./Diag. 0.10E+00    5.7     0.00077660       -12.8680534841  6.05E-04
    17 Broy./Diag. 0.10E+00    5.6     0.00038974       -12.8671382673  9.15E-04
    18 Broy./Diag. 0.10E+00    5.6     0.00024691       -12.8673969841 -2.59E-04
    19 Broy./Diag. 0.10E+00    5.9     0.00047246       -12.8668154341  5.82E-04
    20 Broy./Diag. 0.10E+00    5.9     0.00046970       -12.8667169576  9.85E-05
    21 Broy./Diag. 0.10E+00    5.6     0.00008811       -12.8667565044 -3.95E-05
    22 Broy./Diag. 0.10E+00    5.6     0.00030013       -12.8668798258 -1.23E-04
    23 Broy./Diag. 0.10E+00    5.7     0.00002589       -12.8670705868 -1.91E-04
    24 Broy./Diag. 0.10E+00    5.9     0.00015307       -12.8671616062 -9.10E-05
    25 Broy./Diag. 0.10E+00    6.1     0.00003534       -12.8670177133  1.44E-04
    26 Broy./Diag. 0.10E+00    5.6     0.00008659       -12.8669125769  1.05E-04
    27 Broy./Diag. 0.10E+00    5.7     0.00002441       -12.8669974044 -8.48E-05
    28 Broy./Diag. 0.10E+00    5.5     0.00003909       -12.8670196372 -2.22E-05
    29 Broy./Diag. 0.10E+00    5.7     0.00009653       -12.8670965728 -7.69E-05
    30 Broy./Diag. 0.10E+00    6.1     0.00000707       -12.8671143545 -1.78E-05
    31 Broy./Diag. 0.10E+00    5.6     0.00001057       -12.8670853092  2.90E-05
    32 Broy./Diag. 0.10E+00    5.6     0.00001639       -12.8671256024 -4.03E-05
    33 Broy./Diag. 0.10E+00    5.7     0.00002982       -12.8671365662 -1.10E-05
    34 Broy./Diag. 0.10E+00    5.8     0.00002053       -12.8670786392  5.79E-05
    35 Broy./Diag. 0.10E+00    6.3     0.00004125       -12.8670429292  3.57E-05
    36 Broy./Diag. 0.10E+00    5.7     0.00000091       -12.8670156086  2.73E-05
    37 Broy./Diag. 0.10E+00    5.8     0.00000325       -12.8670206893 -5.08E-06
    38 Broy./Diag. 0.10E+00    5.6     0.00000108       -12.8670200811  6.08E-07
    39 Broy./Diag. 0.10E+00    5.6     0.00000149       -12.8670186513  1.43E-06
    40 Broy./Diag. 0.10E+00    6.1     0.00000050       -12.8670188842 -2.33E-07
    41 Broy./Diag. 0.10E+00    5.8     0.00000043       -12.8670198053 -9.21E-07
    42 Broy./Diag. 0.10E+00    5.6     0.00000047       -12.8670194701  3.35E-07
    43 Broy./Diag. 0.10E+00    5.6     0.00000070       -12.8670190511  4.19E-07
    44 Broy./Diag. 0.10E+00    5.7     0.00000036       -12.8670197241 -6.73E-07
    45 Broy./Diag. 0.10E+00    6.1     0.00000020       -12.8670199050 -1.81E-07
    46 Broy./Diag. 0.10E+00    6.1     0.00000018       -12.8670195288  3.76E-07
    47 Broy./Diag. 0.10E+00    5.7     0.00000007       -12.8670194450  8.38E-08
    48 Broy./Diag. 0.10E+00    5.7     0.00000006       -12.8670195503 -1.05E-07
    49 Broy./Diag. 0.10E+00    5.7     0.00000010       -12.8670195086  4.17E-08
    50 Broy./Diag. 0.10E+00    6.1     0.00000007       -12.8670193974  1.11E-07
    51 Broy./Diag. 0.10E+00    5.7     0.00000004       -12.8670194640 -6.66E-08
    52 Broy./Diag. 0.10E+00    5.6     0.00000020       -12.8670195500 -8.60E-08
    53 Broy./Diag. 0.10E+00    5.6     0.00000007       -12.8670195175  3.25E-08
    54 Broy./Diag. 0.10E+00    5.8     0.00000007       -12.8670194808  3.67E-08
    55 Broy./Diag. 0.10E+00    5.8     0.00000009       -12.8670195280 -4.72E-08
    56 Broy./Diag. 0.10E+00    6.3     0.00000005       -12.8670194920  3.60E-08
    57 Broy./Diag. 0.10E+00    5.7     0.00000008       -12.8670193899  1.02E-07
    58 Broy./Diag. 0.10E+00    5.8     0.00000004       -12.8670193786  1.13E-08
    59 Broy./Diag. 0.10E+00    5.6     0.00000005       -12.8670194489 -7.03E-08
    60 Broy./Diag. 0.10E+00    5.6     0.00000002       -12.8670194220  2.69E-08
    61 Broy./Diag. 0.10E+00    6.3     0.00000002       -12.8670194220  4.11E-11
    62 Broy./Diag. 0.10E+00    5.7     0.00000003       -12.8670194760 -5.41E-08
    63 Broy./Diag. 0.10E+00    5.6     0.00000005       -12.8670194663  9.76E-09
    64 Broy./Diag. 0.10E+00    5.6     0.00000002       -12.8670194360  3.03E-08
    65 Broy./Diag. 0.10E+00    5.8     0.00000002       -12.8670194474 -1.14E-08
    66 Broy./Diag. 0.10E+00    6.5     0.00000003       -12.8670194476 -1.79E-10
    67 Broy./Diag. 0.10E+00    5.7     0.00000003       -12.8670193852  6.24E-08
    68 Broy./Diag. 0.10E+00    5.8     0.00000003       -12.8670193970 -1.17E-08
    69 Broy./Diag. 0.10E+00    5.6     0.00000003       -12.8670194562 -5.92E-08
    70 Broy./Diag. 0.10E+00    5.7     8.3057E-09       -12.8670194688 -1.26E-08
    71 Broy./Diag. 0.10E+00    6.4     9.7564E-09       -12.8670194561  1.27E-08
    72 Broy./Diag. 0.10E+00    5.7     0.00000002       -12.8670194781 -2.20E-08
    73 Broy./Diag. 0.10E+00    5.7     0.00000002       -12.8670194956 -1.76E-08
    74 Broy./Diag. 0.10E+00    5.7     0.00000001       -12.8670194810  1.46E-08
    75 Broy./Diag. 0.10E+00    5.7     0.00000001       -12.8670194775  3.59E-09
    76 Broy./Diag. 0.10E+00    6.2     7.8384E-09       -12.8670194933 -1.59E-08
    77 Broy./Diag. 0.10E+00    6.1     0.00000002       -12.8670194836  9.77E-09
    78 Broy./Diag. 0.10E+00    5.7     0.00000001       -12.8670194664  1.71E-08
    79 Broy./Diag. 0.10E+00    5.7     0.00000002       -12.8670194966 -3.02E-08
    80 Broy./Diag. 0.10E+00    5.6     9.1413E-09       -12.8670195262 -2.95E-08
    81 Broy./Diag. 0.10E+00    6.0     4.2518E-09       -12.8670195151  1.11E-08
    82 Broy./Diag. 0.10E+00    6.0     0.00000002       -12.8670195210 -5.86E-09
    83 Broy./Diag. 0.10E+00    5.7     0.00000001       -12.8670195473 -2.63E-08
    84 Broy./Diag. 0.10E+00    5.8     7.1379E-09       -12.8670195377  9.59E-09
    85 Broy./Diag. 0.10E+00    5.7     7.0998E-09       -12.8670195254  1.23E-08
    86 Broy./Diag. 0.10E+00    6.2     3.1752E-09       -12.8670195377 -1.23E-08
    87 Broy./Diag. 0.10E+00    5.9     0.00000002       -12.8670195426 -4.89E-09
    88 Broy./Diag. 0.10E+00    5.6     8.8425E-09       -12.8670195246  1.80E-08
    89 Broy./Diag. 0.10E+00    5.8     9.0439E-09       -12.8670195367 -1.21E-08
    90 Broy./Diag. 0.10E+00    5.6     0.00000001       -12.8670195660 -2.93E-08
    91 Broy./Diag. 0.10E+00    6.1     6.4896E-09       -12.8670195654  6.05E-10
    92 Broy./Diag. 0.10E+00    5.9     5.6519E-09       -12.8670195536  1.19E-08
    93 Broy./Diag. 0.10E+00    5.6     5.3947E-09       -12.8670195623 -8.70E-09
    94 Broy./Diag. 0.10E+00    5.6     2.2696E-09       -12.8670195642 -1.92E-09
    95 Broy./Diag. 0.10E+00    5.8     4.9769E-09       -12.8670195536  1.06E-08
    96 Broy./Diag. 0.10E+00    5.8     3.9279E-09       -12.8670195535  1.10E-10
    97 Broy./Diag. 0.10E+00    6.2     3.6957E-09       -12.8670195587 -5.17E-09
    98 Broy./Diag. 0.10E+00    5.7     4.9744E-09       -12.8670195545  4.11E-09
    99 Broy./Diag. 0.10E+00    5.8     2.4367E-09       -12.8670195513  3.28E-09
   100 Broy./Diag. 0.10E+00    5.7     3.3094E-09       -12.8670195565 -5.20E-09
   101 Broy./Diag. 0.10E+00    5.7     3.1695E-09       -12.8670195585 -1.99E-09
   102 Broy./Diag. 0.10E+00    6.4     4.1564E-09       -12.8670195496  8.90E-09
   103 Broy./Diag. 0.10E+00    5.7     2.7817E-09       -12.8670195467  2.83E-09
   104 Broy./Diag. 0.10E+00    5.7     1.5687E-09       -12.8670195484 -1.69E-09
   105 Broy./Diag. 0.10E+00    5.7     3.4107E-09       -12.8670195435  4.92E-09
   106 Broy./Diag. 0.10E+00    5.8     3.2177E-09       -12.8670195401  3.42E-09
   107 Broy./Diag. 0.10E+00    6.4     1.9353E-09       -12.8670195427 -2.65E-09
   108 Broy./Diag. 0.10E+00    5.8     2.5777E-09       -12.8670195435 -7.28E-10
   109 Broy./Diag. 0.10E+00    5.8     1.8524E-09       -12.8670195393  4.20E-09
   110 Broy./Diag. 0.10E+00    5.7     1.4384E-09       -12.8670195389  3.41E-10
   111 Broy./Diag. 0.10E+00    5.7     2.5008E-09       -12.8670195413 -2.36E-09
   112 Broy./Diag. 0.10E+00    6.4     1.6242E-09       -12.8670195384  2.91E-09
   113 Broy./Diag. 0.10E+00    5.8     1.7646E-09       -12.8670195344  3.96E-09
   114 Broy./Diag. 0.10E+00    5.6     1.2570E-09       -12.8670195351 -7.08E-10
   115 Broy./Diag. 0.10E+00    5.8     1.0999E-09       -12.8670195346  5.39E-10
   116 Broy./Diag. 0.10E+00    5.9     1.8811E-09       -12.8670195320  2.59E-09
   117 Broy./Diag. 0.10E+00    6.4     9.9616E-10       -12.8670195335 -1.51E-09

  *** SCF run converged in   117 steps ***


  Electronic density on regular grids:         -8.0000000000        0.0000000000
  Core density on regular grids:                8.0000000000       -0.0000000000
  Total charge density on r-space grids:       -0.0000000000
  Total charge density g-space grids:          -0.0000000000

  Overlap energy of the core charge distribution:               0.00000102720762
  Self energy of the core charge distribution:                -30.91005782344042
  Core Hamiltonian energy:                                      9.49776707774610
  Hartree energy:                                              12.22279987346189
  Exchange-correlation energy:                                 -3.67752968847965

  Total energy:                                               -12.86701953350446

 !-----------------------------------------------------------------------------!
                     Mulliken Population Analysis

 #  Atom  Element  Kind  Atomic population                           Net charge
       1     B        1          3.101032                             -0.101032
       2     N        2          4.898968                              0.101032
 # Total charge                              8.000000                  0.000000

 !-----------------------------------------------------------------------------!

 !-----------------------------------------------------------------------------!
                           Hirshfeld Charges

  #Atom  Element  Kind  Ref Charge     Population                    Net charge
      1       B      1       3.000          2.610                         0.390
      2       N      2       5.000          5.389                        -0.389

  Total Charge                                                            0.001
 !-----------------------------------------------------------------------------!
  
 -------------------------------------------------------------------------------
 -                                                                             -
 -                          BANDSTRUCTURE CALCULATION                          -
 -                                                                             -
 -------------------------------------------------------------------------------
  
 Number of occupied molecular orbitals (MOs) = Number of occupied bands        4
 Number of unoccupied (= virtual) MOs = Number of unoccupied bands            22
 Number of Gaussian basis functions for MOs                                   26
 Number of cells considered in the DFT calculation                           315
 Number of cells for G, χ, W, Σ                                             2209
 Number of special k-points for the bandstructure                              4
 Number of k-points for the bandstructure                                   2452
  
 -------------------------------------------------------------------------------
 -                                                                             -
 -                                GW CALCULATION                               -
 -                                                                             -
 -------------------------------------------------------------------------------
  
 Input: Number of time/freq. points                                           30
 Input: ω_max for fitting Σ(iω) (eV)                                        10.0
 Input: Filter threshold for sparse tensor operations                    1.0E-14
 Input: Apply Hedin shift                                                      F
  
 Number of auxiliary Gaussian basis functions for χ, ε, W                     47
 Cutoff radius for the truncated Coulomb operator in Σ^x:                 51.1 Å
 Cutoff radius for the truncated Coulomb operator in RI metric:            7.0 Å
 Regularization parameter of RI                                          1.0E-02
 Regularization parameter of minimax grids                               1.0E-06
 Lattice sum size for V(k):                                                    3
  
 K-point mesh 1 for χ, ε, W                                          192 192   1
 K-point mesh 2 for χ, ε, W (for k-point extrapolation of W)         384 384   1
 Approximate the k-point extrapolation                                         F
 Radius of atomic orbitals                                                12.9 Å
 Radius of RI functions                                                    9.5 Å
 Number of cells for 3c integrals                                            423
 Number of cell pairs for 3c integrals                                     49621
 
 Input: Available memory per MPI process                                 32.0 GB
 Used memory per MPI process before GW run                                0.4 GB
 Memory of three-center integrals                                        12.6 GB
 Group size for tensor operations                                              1
 Number of cells ΔR                                                         1643
 Min. abs. eigenvalue of RI metric matrix M(k)                           2.4E-04
 Max. abs. eigenvalue of RI metric matrix M(k)                           1.1E+03
 Max. condition number of M(k)                                           6.2E+06
 
 SCF direct band gap (eV)                                                   4.67
 Max. SCF eigval diff. (eV)                                               262.88
 E-Range for minimax grid                                                  56.28
 Number of Padé parameters for analytic continuation:                         16
 
 Computed χ^R(iτ) for time point            1 / 30,      Execution time  508.3 s
 Computed χ^R(iτ) for time point            2 / 30,      Execution time 1351.6 s
 Computed χ^R(iτ) for time point            3 / 30,      Execution time 1485.9 s
 Computed χ^R(iτ) for time point            4 / 30,      Execution time 1537.9 s
 Computed χ^R(iτ) for time point            5 / 30,      Execution time 1551.3 s
 Computed χ^R(iτ) for time point            6 / 30,      Execution time 1558.1 s
 Computed χ^R(iτ) for time point            7 / 30,      Execution time 1550.2 s
 Computed χ^R(iτ) for time point            8 / 30,      Execution time 1557.0 s
 Computed χ^R(iτ) for time point            9 / 30,      Execution time 1544.0 s
 Computed χ^R(iτ) for time point           10 / 30,      Execution time 1526.7 s
 Computed χ^R(iτ) for time point           11 / 30,      Execution time 1509.6 s
 Computed χ^R(iτ) for time point           12 / 30,      Execution time 1484.6 s
 Computed χ^R(iτ) for time point           13 / 30,      Execution time 1462.1 s
 Computed χ^R(iτ) for time point           14 / 30,      Execution time 1439.7 s
 Computed χ^R(iτ) for time point           15 / 30,      Execution time 1397.9 s
 Computed χ^R(iτ) for time point           16 / 30,      Execution time 1346.9 s
 Computed χ^R(iτ) for time point           17 / 30,      Execution time 1313.3 s
 Computed χ^R(iτ) for time point           18 / 30,      Execution time 1270.8 s
 Computed χ^R(iτ) for time point           19 / 30,      Execution time 1184.1 s
 Computed χ^R(iτ) for time point           20 / 30,      Execution time 1066.0 s
 Computed χ^R(iτ) for time point           21 / 30,      Execution time  889.0 s
 Computed χ^R(iτ) for time point           22 / 30,      Execution time  768.5 s
 Computed χ^R(iτ) for time point           23 / 30,      Execution time  628.0 s
 Computed χ^R(iτ) for time point           24 / 30,      Execution time   25.9 s
 Computed χ^R(iτ) for time point           25 / 30,      Execution time   14.2 s
 Computed χ^R(iτ) for time point           26 / 30,      Execution time   13.7 s
 Computed χ^R(iτ) for time point           27 / 30,      Execution time   14.1 s
 Computed χ^R(iτ) for time point           28 / 30,      Execution time   13.6 s
 Computed χ^R(iτ) for time point           29 / 30,      Execution time   14.2 s
 Computed χ^R(iτ) for time point           30 / 30,      Execution time   13.6 s
 Computed V_PQ(k),                                       Execution time 2483.7 s
 
 Computed W_PQ(k,iω) for all k and τ,                    Execution time 1306.4 s
 
 Computed Σ^x,                                           Execution time 2912.7 s
 
 Computed Σ^c(iτ) for time point            1 / 30,      Execution time  758.1 s
 Computed Σ^c(iτ) for time point            2 / 30,      Execution time  526.2 s
 Computed Σ^c(iτ) for time point            3 / 30,      Execution time  521.3 s
 Computed Σ^c(iτ) for time point            4 / 30,      Execution time  516.1 s
 Computed Σ^c(iτ) for time point            5 / 30,      Execution time  512.6 s
 Computed Σ^c(iτ) for time point            6 / 30,      Execution time  505.8 s
 Computed Σ^c(iτ) for time point            7 / 30,      Execution time  498.8 s
 Computed Σ^c(iτ) for time point            8 / 30,      Execution time  491.4 s
 Computed Σ^c(iτ) for time point            9 / 30,      Execution time  482.1 s
 Computed Σ^c(iτ) for time point           10 / 30,      Execution time  471.9 s
 Computed Σ^c(iτ) for time point           11 / 30,      Execution time  452.5 s
 Computed Σ^c(iτ) for time point           12 / 30,      Execution time  438.4 s
 Computed Σ^c(iτ) for time point           13 / 30,      Execution time  425.7 s
 Computed Σ^c(iτ) for time point           14 / 30,      Execution time  416.1 s
 Computed Σ^c(iτ) for time point           15 / 30,      Execution time  401.8 s
 Computed Σ^c(iτ) for time point           16 / 30,      Execution time  389.7 s
 Computed Σ^c(iτ) for time point           17 / 30,      Execution time  373.4 s
 Computed Σ^c(iτ) for time point           18 / 30,      Execution time  341.3 s
 Computed Σ^c(iτ) for time point           19 / 30,      Execution time  316.3 s
 Computed Σ^c(iτ) for time point           20 / 30,      Execution time  281.3 s
 Computed Σ^c(iτ) for time point           21 / 30,      Execution time  259.0 s
 Computed Σ^c(iτ) for time point           22 / 30,      Execution time   93.2 s
 Computed Σ^c(iτ) for time point           23 / 30,      Execution time   19.8 s
 Computed Σ^c(iτ) for time point           24 / 30,      Execution time   17.8 s
 Computed Σ^c(iτ) for time point           25 / 30,      Execution time   15.2 s
 Computed Σ^c(iτ) for time point           26 / 30,      Execution time   15.9 s
 Computed Σ^c(iτ) for time point           27 / 30,      Execution time   15.3 s
 Computed Σ^c(iτ) for time point           28 / 30,      Execution time   15.8 s
 Computed Σ^c(iτ) for time point           29 / 30,      Execution time   15.5 s
 Computed Σ^c(iτ) for time point           30 / 30,      Execution time   15.5 s

 
 SCF valence band maximum (eV):                                           -3.666
 SCF conduction band minimum (eV):                                         1.004
 SCF indirect band gap (eV):                                               4.671
 SCF direct band gap (eV):                                                 4.671
 
 G0W0 valence band maximum (eV):                                          -4.675
 G0W0 conduction band minimum (eV):                                        2.915
 G0W0 indirect band gap (eV):                                              7.590
 G0W0 direct band gap (eV):                                                7.590
 
 Hartree-Fock with SCF orbitals valence band maximum (eV):                -6.987
 Hartree-Fock with SCF orbitals conduction band minimum (eV)               6.257
 Hartree-Fock with SCF orbitals indirect band gap (eV):                   13.244
 Hartree-Fock with SCF orbitals direct band gap (eV):                     13.457

 ENERGY| Total FORCE_EVAL ( QS ) energy [hartree]            -12.867019535217448

 -------------------------------------------------------------------------------
 -                                                                             -
 -                                DBCSR STATISTICS                             -
 -                                                                             -
 -------------------------------------------------------------------------------
 COUNTER                                    TOTAL       BLAS       SMM       ACC
 flops inhomo. stacks                           0       0.0%      0.0%      0.0%
 flops total                         0.000000E+00       0.0%      0.0%      0.0%
 flops max/rank                      0.000000E+00       0.0%      0.0%      0.0%
 matmuls inhomo. stacks                         0       0.0%      0.0%      0.0%
 matmuls total                                  0       0.0%      0.0%      0.0%
 number of processed stacks                     0       0.0%      0.0%      0.0%
 average stack size                                     0.0       0.0       0.0
 marketing flops                     0.000000E+00
 -------------------------------------------------------------------------------
 -                                                                             -
 -                      DBCSR MESSAGE PASSING PERFORMANCE                      -
 -                                                                             -
 -------------------------------------------------------------------------------
 ROUTINE             CALLS      AVE VOLUME [Bytes]
 MP_Bcast                1                     12.
 MP_Allreduce           19                     21.
 MP_Alltoall      16998737                  45722.
 -------------------------------------------------------------------------------

 -------------------------------------------------------------------------------
 -                                                                             -
 -                                DBM STATISTICS                               -
 -                                                                             -
 -------------------------------------------------------------------------------
    M  x    N  x    K                                          COUNT     PERCENT
   ??  x   ??  x  ???                                     4757350697      14.72%
    ?  x    ?  x    ?                                    16104305638      49.83%
  ???  x   ??  x   ??                                    11459501525      35.46%
 -------------------------------------------------------------------------------
 Memory consumption                Number of allocations  Used [MiB]  Size [MiB]
 Host                                             223323       13892       20519
 -------------------------------------------------------------------------------

 -------------------------------------------------------------------------------
 -                                                                             -
 -                                GRID STATISTICS                              -
 -                                                                             -
 -------------------------------------------------------------------------------
 LP    KERNEL             BACKEND                              COUNT     PERCENT
 4     integrate general  CPU                                 655680      50.39%
 4     collocate general  CPU                                 644752      49.55%
 0     collocate general  CPU                                    512       0.04%
 0     integrate general  CPU                                    256       0.02%
 -------------------------------------------------------------------------------

 MEMORY| Estimated peak process memory [MiB]                               21812

 -------------------------------------------------------------------------------
 ----                             MULTIGRID INFO                            ----
 -------------------------------------------------------------------------------
 count for grid        1:         477899          cutoff [a.u.]          500.00
 count for grid        2:         418592          cutoff [a.u.]          166.67
 count for grid        3:         472540          cutoff [a.u.]           55.56
 count for grid        4:         225446          cutoff [a.u.]           18.52
 total gridlevel count  :        1594477

 -------------------------------------------------------------------------------
 -                                                                             -
 -                         MESSAGE PASSING PERFORMANCE                         -
 -                                                                             -
 -------------------------------------------------------------------------------

 ROUTINE             CALLS      AVE VOLUME [Bytes]
 MP_Group        132408871
 MP_Bcast         87295279                    186.
 MP_Allreduce    232250369                    287.
 MP_Sync         210306682
 MP_Alltoall     100586154                    303.
 MP_SendRecv         44958                   4672.
 MP_ISendRecv        45720                   4672.
 MP_Wait           5084002
 MP_comm_split    82440567
 MP_ISend         69499810                   2223.
 MP_IRecv         15013090                   2006.
 -------------------------------------------------------------------------------


 -------------------------------------------------------------------------------
 -                                                                             -
 -                           R E F E R E N C E S                               -
 -                                                                             -
 -------------------------------------------------------------------------------
 
 CP2K version 2025.2 (Development Version), the CP2K developers group (2025).
 CP2K is freely available from https://www.cp2k.org/ .
 
 M. Graml, K. Zollner, D. Hernangómez-Pérez, P. E. Faria Junior, J. Wilhelm.
 J. Chem. Theory Comput. 20, 2202-2208 (2024).
 Low-scaling GW algorithm applied to twisted transition-metal dichalcogenide 
 heterobilayers.
 https://doi.org/10.1021/acs.jctc.3c01230

 T. D. Kuehne, M. Iannuzzi, M. Del Ben, V. V. Rybkin, P. Seewald, F. Stein, T. 
 Laino, R. Z. Khaliullin, O. Schuett, F. Schiffmann, D. Golze, J. Wilhelm, S. 
 Chulkov, M. H. Bani-Hashemian, V. Weber, U. Borstnik, M. Taillefumier, A. S. 
 Jakobovits, A. Lazzaro, H. Pabst, T. Mueller, R. Schade, M. Guidon, S. 
 Andermatt, N. Holmberg, G. K. Schenter, A. Hehn, A. Bussy, F. Belleflamme, G. 
 Tabacchi, A. Gloess, M. Lass, I. Bethune, C. J. Mundy, C. Plessl, M. Watkins, 
 J. VandeVondele, M. Krack, J. Hutter.
 J. Chem. Phys. 152, 194103 (2020).
 CP2K: An electronic structure and molecular dynamics software package - 
 Quickstep: Efficient and accurate electronic structure calculations.
 https://doi.org/10.1063/5.0007045

 A. Togo, I. Tanaka.
 arXiv, 1808.01590 (2018).
 Spglib : a software library for crystal symmetry search.

 O. Schuett, P. Messmer, J. Hutter, J. VandeVondele.
 Electronic Structure Calculations on Graphics Processing Units, 173-190 (2016).
 GPU-Accelerated Sparse Matrix-Matrix Multiplication for Linear Scaling Density 
 Functional Theory.
 https://doi.org/10.1002/9781118670712.ch8

 A. Heinecke, G. Henry, M. Hutchinson, H. Pabst.
 Proceedings of Intl. Supercomputing Conference, 981-991 (2016).
 LIBXSMM: Accelerating Small Matrix Multiplications by Runtime Code Generation.
 https://doi.org/10.1109/SC.2016.83

 J. Hutter, M. Iannuzzi, F. Schiffmann, J. VandeVondele.
 WIREs Comput Mol Sci. 4, 15-25 (2014).
 CP2K: atomistic simulations of condensed matter systems.
 https://doi.org/10.1002/wcms.1159

 U. Borstnik, J. VandeVondele, V. Weber, J. Hutter.
 Parallel Comput. 40, 47-58 (2014).
 Sparse matrix multiplication: The distributed block-compressed sparse row 
 library.
 https://doi.org/10.1016/j.parco.2014.03.012

 A. Marek, V. Blum, R. Johanni, V. Havu, B. Lang, T. Auckenthaler, A. Heinecke, 
 H. Bungartz, H. Lederer.
 J. Phys. Condens. Matter 26, 213201 (2014).
 The ELPA library: scalable parallel eigenvalue solutions for electronic 
 structure theory and computational science.
 https://doi.org/10.1088/0953-8984/26/21/213201

 J. VandeVondele, J. Hutter.
 J. Chem. Phys. 127, 114105 (2007).
 Gaussian basis sets for accurate calculations on molecular systems in gas and 
 condensed phases.
 https://doi.org/10.1063/1.2770708

 J. VandeVondele, M. Krack, F. Mohamed, M. Parrinello, T. Chassaing, J. Hutter.
 Comput. Phys. Commun. 167, 103-128 (2005).
 QUICKSTEP: Fast and accurate density functional calculations using a mixed 
 Gaussian and plane waves approach.
 https://doi.org/10.1016/j.cpc.2004.12.014

 M. Krack.
 Theor. Chem. Acc. 114, 145-152 (2005).
 Pseudopotentials for H to Kr optimized for gradient-corrected 
 exchange-correlation functionals.
 https://doi.org/10.1007/s00214-005-0655-y

 M. Frigo, S. G. Johnson.
 Proc. IEEE 93, 216-231 (2005).
 The design and implementation of FFTW3.
 https://doi.org/10.1109/JPROC.2004.840301

 C. Hartwigsen, S. Goedecker, J. Hutter.
 Phys. Rev. B 58, 3641-3662 (1998).
 Relativistic separable dual-space Gaussian pseudopotentials from H to Rn.
 https://doi.org/10.1103/PhysRevB.58.3641

 G. Lippert, J. Hutter, M. Parrinello.
 Mol. Phys. 92, 477-487 (1997).
 A hybrid Gaussian and plane wave density functional scheme.
 https://doi.org/10.1080/002689797170220

 S. Goedecker, M. Teter, J. Hutter.
 Phys. Rev. B 54, 1703-1710 (1996).
 Separable dual-space Gaussian pseudopotentials.
 https://doi.org/10.1103/PhysRevB.54.1703

 J. P. Perdew, K. Burke, M. Ernzerhof.
 Phys. Rev. Lett. 77, 3865-3868 (1996).
 Generalized gradient approximation made simple.
 https://doi.org/10.1103/PhysRevLett.77.3865


 -------------------------------------------------------------------------------
 -                                                                             -
 -                                T I M I N G                                  -
 -                                                                             -
 -------------------------------------------------------------------------------
 SUBROUTINE                       CALLS  ASD         SELF TIME        TOTAL TIME
                                MAXIMUM       AVERAGE  MAXIMUM  AVERAGE  MAXIMUM
 CP2K                                 1  1.0     0.05     0.07 48181.57 48183.02
 qs_energies                          1  2.0     0.00     0.00 47695.06 47696.50
 qs_energies_properties               1  3.0     0.00     0.00 47012.33 47013.75
 post_scf_bandstructure               1  4.0     0.00     0.00 47012.33 47013.75
 gw                                   1  5.0     0.00     0.00 46973.03 46974.44
 gw_calc_small_cell_full_kp           1  6.0     0.00     0.00 46902.11 46903.52
 dbt_total                      *******  9.6    81.60    85.73 33280.80 38366.34
 dbt_contract                   ******* 10.4   171.38   177.82 32125.47 37248.75
 dbt_tas_multiply               ******* 12.9    26.53    29.05 30900.79 36076.81
 dbt_tas_total                  ******* 13.9   968.08  1004.44 30884.18 36061.54
 compute_chi                          1  7.0     0.13     0.77 30099.72 30100.63
 dbt_tas_estimate_result_nze    ******* 13.4   445.66   463.53 17240.17 21369.15
 G_times_3c                       56388  8.0    40.87    43.39 15857.16 18059.38
 mp_sync                        ******* -7.1  6695.99 11174.43  6695.99 11174.43
 contract_M_occ_vir_to_chi          166  8.0   133.51   140.48  7281.09 10637.01
 dbm_reserve_blocks             ******* 16.7  7023.13  9762.87  7023.13  9762.87
 compute_Sigma_c                      1  7.0     0.00     0.00  9614.27  9614.84
 dbt_tas_dbm                    ******* 14.9    23.88    25.34  6720.32  7944.13
 convert_to_new_pgrid           ******* 14.9   136.09   142.52  6961.50  7898.86
 dbm_multiply                   ******* 16.9  6668.63  7893.24  6668.63  7893.24
 dbm_copy                       ******* 15.9  6825.41  7766.51  6825.41  7766.51
 contract_to_Sigma                  314  8.0    90.49    95.78  6314.69  6828.43
 dbt_tas_reserve_blocks_index   ******* 15.9    64.26    67.14  4222.17  6509.81
 contract_W                         163  8.0    32.91    34.65  4452.11  4733.70
 reshape_mm_small               ******* 14.9  1779.70  1936.04  4172.48  4694.03
 dbt_tas_reserve_blocks_templat ******* 14.2    53.42    57.99  2642.81  4401.86
 dbt_tas_mm_1N                  7569456 15.5     4.04     4.81  3559.28  4095.14
 contract_to_Sigma_3c_x_G       5594504  9.0     6.72     7.25  3823.75  4078.38
 compute_W_real_space                 1  7.0     3.17     3.39  3790.73  3790.86
 dbt_tas_replicate              ******* 14.9   305.09   319.09  3205.92  3516.19
 dbt_tas_mm_2                   9083336 16.0     8.39     8.91  1984.15  3078.81
 compute_Sigma_x                      1  7.0     0.00     0.00  2917.79  2918.23
 dbt_tas_reshape                ******* 15.5   145.99   153.52  2147.13  2724.51
 dbm_add                        ******* 14.9  2123.52  2694.85  2123.52  2694.85
 contract_to_Sigma_contract       53509  9.0    38.00    40.65  2356.59  2616.35
 compute_Minv_and_Vsqrt               1  8.0     0.03     0.03  2483.66  2483.80
 build_2c_coulomb_matrix_kp_sma       2  9.0     4.78    12.21  2477.04  2477.18
 dbt_tas_reshape_buffer_obtain  ******* 16.5   147.54   156.99  1638.40  2204.45
 build_2c_coulomb_matrix_kp_sma 1474560 10.0  2084.91  2151.59  2084.91  2151.59
 dbt_tas_create_split           ******* 16.0    49.93    53.22  1761.30  1855.32
 dbt_tas_create_split_rows_or_c ******* 17.0   186.27   196.73  1711.37  1803.98
 G_occ_vir                          121  8.0     0.64     0.72  1697.44  1722.22
 reshape_mm_compatible          ******* 14.9   238.63   247.59  1633.23  1715.40
 dbcsr_complete_redistribute    1438146  9.3    26.13    72.16  1387.92  1490.47
 mp_alltoall_i22                2824489  9.7  1267.79  1407.02  1267.79  1407.02
 dbt_copy                       ******* 10.9   124.23   131.42  1284.69  1351.92
 dbt_tas_distribution_new       ******* 15.8   626.35   659.21  1228.99  1294.48
 fm_to_local_tensor              335768  9.0     2.60     2.72  1236.14  1236.70
 dbt_tas_mm_3T                  ******* 16.1     7.69     8.88  1147.64  1216.10
 change_split                   ******* 15.4    77.94    81.90  1101.06  1165.07
 copy_fm_to_dbcsr                605651  9.1     1.27     1.33   985.07  1097.14
 fm_to_local_array                  934  8.1    19.32    19.65   995.47   995.66
 mp_sum_dm3                        1112  8.9   984.83   984.91   984.83   984.91
 dbt_tas_merge                  9083336 15.0    97.83   102.81   466.60   975.19
 global_matrix_to_local_matrix   335768 10.0     3.05     4.77   231.18   958.06
 mp_cart_create                 ******* ****   792.62   832.99   876.48   920.92
 dbt_reshape                    ******* 11.8   567.03   610.39   824.81   883.99
 send_data                       335768 11.0     0.20     0.25   136.55   876.83
 communicate_buffer              335768 12.0     1.30    23.17   136.35   876.59
 mp_waitall_1                   4638102 10.5   136.84   811.19   136.84   811.19
 dbt_remap                      2660915 11.0   243.12   269.66   679.03   730.44
 dbt_destroy                    ******* 11.1   579.26   690.72   590.85   702.45
 scf_env_do_scf                       1  3.0     0.00     0.00   682.24   682.26
 scf_env_do_scf_inner_loop          117  4.0     0.02     0.02   682.24   682.26
 get_t_3c_int                   *******  9.3    33.45    34.89   628.23   680.30
 qs_scf_new_mos_kp                  117  5.0     0.00     0.00   660.20   660.67
 do_general_diag_kp                 117  6.0     1.26     1.32   660.20   660.67
 parallel_gemm_cfm               592640  9.0     0.40     0.45   598.36   629.48
 parallel_gemm_cfm_cosma         592640 10.0   597.96   629.10   597.96   629.10
 copy_dbcsr_to_fm                832495  7.8     4.23     4.46   606.65   620.61
 mp_comm_dup                    ******* 18.5   538.50   570.75   586.35   619.71
 bs_env_release                       1  2.0     0.41     0.56   379.86   484.89
 compute_QP_energies                  1  7.0     0.36     0.44   479.61   481.97
 trafo_to_k_and_nn               149572  8.0     0.49     0.56   478.96   481.36
 mp_comm_split_direct           ******* 18.0   363.40   388.75   387.95   413.78
 mp_comm_free                   *******  1.3   343.27   368.65   343.27   368.65
 dbcsr_desymmetrize_deep        1386343  8.1    10.37    11.92   326.65   353.99
 dbt_permute_index              ******* 12.2   250.59   265.47   283.14   299.60
 fm_add_ikp_to_rs                278784  9.0   185.86   191.89   284.24   296.13
 reshape_mm_template            5321830 15.5   172.34   209.74   252.63   292.96
 local_dbt_to_global_fm              91  8.0     0.33     0.35   272.59   272.59
 dbt_tas_create_new             ******* 15.3   241.92   252.31   241.92   252.31
 dbt_align_index                ******* 11.4    42.56    44.20   242.58   252.00
 add_R                          ******* -1.4   157.59   164.99   240.25   249.77
 mp_max_i                       ******* 11.4   114.91   246.93   114.91   246.93
 dbt_tas_reshape_buffer_fill    ******* 16.5   227.51   240.81   227.51   240.81
 mp_cart_sub                    1665069  9.8   233.55   233.88   233.55   233.88
 add_ikp_to_rs                  ******* -3.0   197.70   205.66   197.70   205.66
 dbt_tas_mp_comm                ******* 13.1    24.53    26.07   193.84   204.07
 dbt_tas_copy                   9965971 12.3    73.91    85.55   182.68   196.18
 mp_sum_dm                      1474676 10.0   175.78   192.54   175.78   192.54
 dbt_reserve_blocks_index_array ******* 12.8    14.90    16.74   175.11   189.85
 add_rs_to_ikp                  ******* -1.3   175.86   187.20   175.86   187.20
 dbt_distribution_new_expert    5993376 12.4    30.63    33.02   174.73   183.91
 dbt_reserve_blocks_index       ******* 13.8    18.91    20.58   167.05   180.65
 fm_trafo_rs_to_ikp              149572  9.0   100.18   103.27   168.96   180.52
 is_cell_in_index_to_cell       ******* -2.2   148.31   153.74   148.31   153.74
 mp_comm_size                   ******* -1.5   137.71   151.27   137.71   151.27
 local_dbt_to_global_mat         201019  9.0     0.56     0.59    52.12   150.44
 mp_cart_get                    *******  1.3   136.66   145.04   136.66   145.04
 local_matrix_to_global_matrix   201019 10.0     0.37     0.40    36.99   135.88
 kpoint_density_transform           117  7.0     0.38     0.41   134.74   134.79
 trafo_rs_to_ikp                  24156  8.1    17.36    18.19   124.44   127.30
 destroy_t_1d                        98  8.0     0.50     0.57   121.26   126.86
 add_V_L                         737280 10.0     3.74   125.39     3.74   125.39
 add_ikp_to_all_rs                22158  8.0    15.42    16.32   114.78   119.96
 comm_data                       201019 11.0     0.33     2.80    19.03   111.50
 mp_waitall_2                    402038 12.0    16.92   107.29    16.92   107.29
 rskp_transform                  276924  7.0     1.42   102.87     1.42   102.87
 mult_W_with_Minv                    30  8.0     0.24     0.25   100.23   100.23
 get_V_tr_R                          34  9.0     0.17     0.18    99.20    99.23
 mp_comm_rank                   ******* -1.5    91.72    98.45    91.72    98.45
 cp_fm_start_copy_general        808704  7.3     3.40     6.21    95.23    98.32
 dbt_create_new                 2996688 11.9    19.40    20.74    92.80    97.66
 fm_MWM_R_t_to_local_tensor_W_R      30  8.0     0.05     0.05    93.56    93.60
 dbt_communicate_buffer         ******* 12.8    82.59    92.25    82.59    92.25
 mp_allgather_i                 1617408  8.3    72.79    77.88    72.79    77.88
 mp_sum_i                       ******* 16.0    75.89    77.73    75.89    77.73
 create_and_init_bs_env_for_gw        1  6.0     0.00     0.00    70.91    70.92
 send_sizes_1                    335768 11.0     0.19     0.23    69.34    70.78
 dbm_filter                     ******* 14.9    65.76    70.27    65.76    70.27
 dbt_copy_nocomm                2308409 11.0    39.20    43.57    59.45    66.08
 mp_alltoall_d11v               8473705 10.2    20.22    63.05    20.22    63.05
 mp_alltoall_i                  ******* 15.5    52.48    56.00    52.48    56.00
 dbt_tas_reshape_communicate_bu ******* 16.5    19.80    22.53    50.01    55.45
 transform_dmat                  134784  8.0     0.66    49.43     0.66    49.43
 dbt_tas_communicate_buffer     ******* 17.2    41.36    46.88    41.36    46.88
 dbt_tas_reshape_get_coord      ******* 16.5    42.49    45.40    42.49    45.40
 dbt_pgrid_create_expert        5993379 13.4     6.52     7.11    42.29    45.02
 mp_alltoall_i11v               5700781 10.0    33.70    44.91    33.70    44.91
 mp_sum_l                       ******* ****    41.41    44.13    41.41    44.13
 destroy_t_2d                        62  8.0    11.00    21.34    33.60    43.53
 dbt_create_3c_R1_R2                 62  8.0     9.73    10.75    40.36    41.59
 dbcsr_finalize                 5031804 10.7     8.07     9.43    34.83    40.86
 mp_isend_dv                    ******* 10.3     2.76    37.31     2.76    37.31
 compute_3c_integrals                 1  7.0     0.18     0.20    37.25    37.25
 dbm_scale                      ******* 14.8    33.75    36.71    33.75    36.71
 build_3c_integrals                   1  8.0    26.39    28.41    34.40    36.33
 dbt_tas_reshape_alltoall       ******* 16.5    17.55    20.52    32.56    36.08
 dbt_create_matrix               335768 10.0     1.85     1.92    33.47    34.84
 dbt_create_template            *******  9.0    32.32    33.48    32.32    33.48
 dbt_nd_mp_comm                 2996683 11.9     4.14     4.40    28.86    30.52
 create_and_init_bs_env               1  5.0     0.00     0.00    28.26    28.26
 compute_cfm_mo_coeff_kp_and_ei       1  6.0     0.01     0.01    28.26    28.26
 get_data                        335768 11.0     5.43    25.88     5.92    26.50
 get_Minv_Vtr_Minv_R                  1  8.0     0.01     0.01    26.46    26.48
 mp_bcast_i                     ******* 18.0    22.23    25.71    22.23    25.71
 dbt_reserve_blocks_template    2308409 12.0     3.62     4.05    20.25    23.59
 dbt_create_2c_R                     98  8.0    18.22    20.74    18.89    21.46
 dbt_tas_replicate_communicate_ ******* 15.9    11.44    12.25    19.24    20.85
 mp_dims_create                 ******* 14.3    18.71    20.75    18.71    20.75
 mp_sum_dv                       164400  8.9    15.48    20.08    15.48    20.08
 dbcsr_merge_all                1964600 11.5    12.05    12.84    17.17    19.12
 cp_cfm_geeig_canon                2452  7.0     0.01     0.01    18.92    18.98
 cp_cfm_heevd                      5957  8.0     0.00     0.00    17.97    18.04
 cp_cfm_heevd_base                 5957  9.0    17.97    18.03    17.97    18.03
 dbcsr_filter_anytype           1522878 11.0     2.96     3.27    12.11    17.83
 dbt_tas_replicate_alltoall     ******* 15.9     9.86    10.86    15.89    17.71
 mp_bcast_iv                    3235156  8.3    14.37    16.19    14.37    16.19
 dbt_distribution_destroy       5993376 12.4    11.62    12.52    15.00    16.03
 mp_cart_rank                   ******* 15.9    13.98    15.76    13.98    15.76
 power                            45918  8.0     1.78     1.91    14.25    14.73
 setup_parallelization_Delta_R        1  7.0     0.00     0.00    14.37    14.37
 compute_n_tensor_ops_Delta_R         1  8.0     3.98     5.97    14.31    14.32
 rsmat_to_kp                       7356  7.3     0.05     0.06    13.96    14.05
 mp_waitany                       43862 11.5    13.20    13.86    13.20    13.86
 dbt_buffer_get_index           ******* 16.8    11.14    12.90    11.14    12.90
 diag_complex                     45918  9.0    12.47    12.84    12.47    12.84
 dbcsr_create_new               4704497  9.6     9.09     9.51    11.39    11.90
 set_blocks                      201019 11.0     1.98     4.96     5.60    11.72
 dos_pdos_ldos                        1  5.0     0.00     0.00    11.04    11.08
 send_sizes_2                    335768 11.0     0.20     0.22    10.55    11.02
 qs_rho_update_rho_low              118  5.0     0.00     0.00    10.50    10.50
 calculate_rho_elec                 118  6.0     0.00     0.00    10.50    10.50
 transfer_rs2pw                     474  8.0     0.00     0.00     9.83    10.31
 density_rs2pw                      118  7.0     0.00     0.00     9.78    10.26
 trafo_V_xc_R_to_kp                   1  7.0     0.01     0.01    10.18    10.21
 compute_proj_mo_on_kind           2452  6.0     0.02     0.03    10.13    10.14
 transfer_rs2pw_500                 120  9.0     0.09     0.14     9.62    10.11
 qs_ks_update_qs_env                117  5.0     0.00     0.00     8.45     9.93
 dbt_tas_merge_alltoall         9083336 16.0     4.82     5.23     8.74     9.60
 dbcsr_iterator_start           ******* 10.6     7.04     7.24     8.99     9.26
 dbt_copy_matrix_to_tensor       335768 10.0     1.22     1.28     7.40     9.22
 dbt_tas_merge_communicate_buff 9083336 16.0     5.19     5.55     8.54     9.20
 qs_ks_build_kohn_sham_matrix       120  7.0     0.03     0.04     7.63     9.15
 copy_fm_to_dbcsr_bc             605651 10.1     2.56     2.84     8.40     8.99
 rebuild_ks_matrix                  117  6.0     0.00     0.00     7.38     8.86
 sum_up_and_integrate               120  8.0     0.00     0.00     7.11     8.63
 integrate_v_rspace                 120  9.0     0.00     0.00     7.11     8.62
 mp_sum_iv                           24  6.1     4.77     8.09     4.77     8.09
 mp_isend_im2                   ******* 12.8     0.18     7.94     0.18     7.94
 dbt_reserve_blocks_matrix_to_t  335768 11.0     0.81     0.85     5.72     7.54
 dbcsr_work_create              3350943 10.0     4.12     4.94     6.14     7.35
 dbcsr_destroy                  4428823  9.3     3.64     3.93     6.69     7.23
 comm_size                       201019 11.0     0.16     0.17     6.61     6.89
 dbcsr_data_release             ******* 11.2     5.79     6.82     5.79     6.82
 dbcsr_iterator_stop            ******* 10.6     5.02     5.35     6.35     6.68
 heuristic_RI_regularization          1  7.0     0.00     0.00     6.66     6.67
 potential_pw2rs                    120 10.0     0.00     0.00     6.63     6.63
 transfer_pw2rs                     481 11.0     0.00     0.00     6.53     6.53
 hybrid_alltoall_any            1386343  9.1     3.31     3.45     5.14     5.92
 dbcsr_data_new                 ******* 10.6     5.07     5.90     5.07     5.90
 dbcsr_work_destroy_all         3350943 10.9     3.59     4.11     4.76     5.47
 reserve_blocks                  335768 11.0     0.73     0.77     3.81     4.90
 -------------------------------------------------------------------------------

 The number of warnings for this run is : 1
 
 -------------------------------------------------------------------------------
  **** **** ******  **  PROGRAM ENDED AT                 2025-10-03 21:07:10.555
 ***** ** ***  *** **   PROGRAM RAN ON                    n2lcn0138.ab2021.local
 **    ****   ******    PROGRAM RAN BY                                  metdyn02
 ***** **    ** ** **   PROGRAM PROCESS ID                                 75198
  **** **  *******  **  PROGRAM STOPPED IN /scratch/hpc-prf-metdyn/metdyn02_Remi
                                           /14_hBN/aug-SZV-MOLOPT/GAPW/filter/1e
                                           -14
