SIRIUS 7.7.0, git hash: https://api.github.com/repos/electronic-structure/SIRIUS/git/ref/tags/v7.7.0
 DBCSR| CPU Multiplication driver                                           BLAS (U)
 DBCSR| Multrec recursion limit                                              512 (U)
 DBCSR| Multiplication stack size                                           1000 (D)
 DBCSR| Maximum elements for images                                    UNLIMITED (U)
 DBCSR| Multiplicative factor virtual images                                   1 (U)
 DBCSR| Use multiplication densification                                       T (D)
 DBCSR| Multiplication size stacks                                             3 (U)
 DBCSR| Use memory pool for CPU allocation                                     F (U)
 DBCSR| Number of 3D layers                                               SINGLE (U)
 DBCSR| Use MPI memory allocation                                              F (U)
 DBCSR| Use RMA algorithm                                                      F (U)
 DBCSR| Use Communication thread                                               T (U)
 DBCSR| Communication thread load                                             75 (D)
 DBCSR| MPI: My process id                                                     0
 DBCSR| MPI: Number of processes                                             192
 DBCSR| OMP: Current number of threads                                         4
 DBCSR| OMP: Max number of threads                                             4
 DBCSR| Split modifier for TAS multiplication algorithm                  1.0E+00 (U)


  **** **** ******  **  PROGRAM STARTED AT               2025-10-14 11:46:43.413
 ***** ** ***  *** **   PROGRAM STARTED ON                                cn1305
 **    ****   ******    PROGRAM STARTED BY                              metdyn02
 ***** **    ** ** **   PROGRAM PROCESS ID                               2390524
  **** **  *******  **  PROGRAM STARTED IN /scratch/hpc-prf-metdyn/metdyn02_Remi
                                           /03_hBN/DZVP-MOLOPT/new-RI

 CP2K| version string:                                       CP2K version 2025.2
 CP2K| source code revision number:                                  git:3158929
 CP2K| cp2kflags: omp libint fftw3 libxc libgrpp elpa parallel scalapack mpi_f08
 CP2K|             cosma xsmm plumed2 spglib sirius libvori libbqb libvdwxc hdf5
 CP2K| is freely available from                            https://www.cp2k.org/
 CP2K| Program compiled at                      Tue Sep 30 10:40:48 AM CEST 2025
 CP2K| Program compiled on                                                login1
 CP2K| Program compiled for                                                local
 CP2K| Data directory path    /opt/software/pc2/EB-SW/software/CP2K/2025.2-foss-
 CP2K| Input file name                                                    GW.inp

 GLOBAL| Force Environment number                                              1
 GLOBAL| Basis set file name                                        BASIS_MOLOPT
 GLOBAL| Potential file name                                  GTH_SOC_POTENTIALS
 GLOBAL| MM Potential file name                                     MM_POTENTIAL
 GLOBAL| Coordinate file name                                      __STD_INPUT__
 GLOBAL| Method name                                                        CP2K
 GLOBAL| Project name                                                        hBN
 GLOBAL| Run type                                                         ENERGY
 GLOBAL| FFT library                                                       FFTW3
 GLOBAL| Diagonalization library                                            ELPA
 GLOBAL| Cholesky decomposition library                                ScaLAPACK
 GLOBAL| DGEMM library                                                      BLAS
 GLOBAL| Minimum number of eigenvectors for ELPA usage                        16
 GLOBAL| Orthonormality check for eigenvectors                          DISABLED
 GLOBAL| Matrix multiplication library                                     COSMA
 GLOBAL| All-to-all communication in single precision                          F
 GLOBAL| FFTs using library dependent lengths                                  F
 GLOBAL| Grid backend                                                       AUTO
 GLOBAL| Global print level                                               MEDIUM
 GLOBAL| MPI I/O enabled                                                       T
 GLOBAL| Total number of message passing processes                           192
 GLOBAL| Number of threads for this process                                    4
 GLOBAL| This output is from process                                           0
 GLOBAL| OpenMP stack size per thread (OMP_STACKSIZE)                    default
 GLOBAL| CPU model name                          AMD EPYC 9655 96-Core Processor
 GLOBAL| CPUID                                                              1003

 MEMORY| system memory details [Kb]
 MEMORY|                        rank 0           min           max       average
 MEMORY| MemTotal            791039072     791039048     791039104     791039074
 MEMORY| MemFree             752235548     752133828     752235548     752181326
 MEMORY| Buffers                  3164          2120          3168          2904
 MEMORY| Cached                7862280       7836576       7862280       7851199
 MEMORY| Slab                  1662888       1632156       1662888       1643483
 MEMORY| SReclaimable           592068        589964        592068        591067
 MEMORY| MemLikelyFree       760693060     760580780     760693060     760626496


 *** Fundamental physical constants (SI units) ***

 *** Literature: B. J. Mohr and B. N. Taylor,
 ***             CODATA recommended values of the fundamental physical
 ***             constants: 2006, Web Version 5.1
 ***             http://physics.nist.gov/constants

 Speed of light in vacuum [m/s]                             2.99792458000000E+08
 Magnetic constant or permeability of vacuum [N/A**2]       1.25663706143592E-06
 Electric constant or permittivity of vacuum [F/m]          8.85418781762039E-12
 Planck constant (h) [J*s]                                  6.62606896000000E-34
 Planck constant (h-bar) [J*s]                              1.05457162825177E-34
 Elementary charge [C]                                      1.60217648700000E-19
 Electron mass [kg]                                         9.10938215000000E-31
 Electron g factor [ ]                                     -2.00231930436220E+00
 Proton mass [kg]                                           1.67262163700000E-27
 Fine-structure constant                                    7.29735253760000E-03
 Rydberg constant [1/m]                                     1.09737315685270E+07
 Avogadro constant [1/mol]                                  6.02214179000000E+23
 Boltzmann constant [J/K]                                   1.38065040000000E-23
 Atomic mass unit [kg]                                      1.66053878200000E-27
 Bohr radius [m]                                            5.29177208590000E-11

 *** Conversion factors ***

 [u] -> [a.u.]                                              1.82288848426455E+03
 [Angstrom] -> [Bohr] = [a.u.]                              1.88972613288564E+00
 [a.u.] = [Bohr] -> [Angstrom]                              5.29177208590000E-01
 [a.u.] -> [s]                                              2.41888432650478E-17
 [a.u.] -> [fs]                                             2.41888432650478E-02
 [a.u.] -> [J]                                              4.35974393937059E-18
 [a.u.] -> [N]                                              8.23872205491840E-08
 [a.u.] -> [K]                                              3.15774647902944E+05
 [a.u.] -> [kJ/mol]                                         2.62549961709828E+03
 [a.u.] -> [kcal/mol]                                       6.27509468713739E+02
 [a.u.] -> [Pa]                                             2.94210107994716E+13
 [a.u.] -> [bar]                                            2.94210107994716E+08
 [a.u.] -> [atm]                                            2.90362800883016E+08
 [a.u.] -> [eV]                                             2.72113838565563E+01
 [a.u.] -> [Hz]                                             6.57968392072181E+15
 [a.u.] -> [1/cm] (wave numbers)                            2.19474631370540E+05
 [a.u./Bohr**2] -> [1/cm]                                   5.14048714338585E+03
 

 CELL_TOP| Volume [angstrom^3]:                                        81.840700
 CELL_TOP| Vector a [angstrom     2.510     0.000     0.000   |a| =     2.510000
 CELL_TOP| Vector b [angstrom    -1.255     2.174     0.000   |b| =     2.510000
 CELL_TOP| Vector c [angstrom     0.000     0.000    15.000   |c| =    15.000000
 CELL_TOP| Angle (b,c), alpha [degree]:                                90.000000
 CELL_TOP| Angle (a,c), beta  [degree]:                                90.000000
 CELL_TOP| Angle (a,b), gamma [degree]:                               120.000000
 CELL_TOP| Numerically orthorhombic:                                          NO
 CELL_TOP| Periodicity                                                        XY

 GENERATE|  Preliminary Number of Bonds generated:                             0
 GENERATE|  Achieved consistency in connectivity generation.

 CELL| Volume [angstrom^3]:                                            81.840700
 CELL| Vector a [angstrom]:       2.510     0.000     0.000   |a| =     2.510000
 CELL| Vector b [angstrom]:      -1.255     2.174     0.000   |b| =     2.510000
 CELL| Vector c [angstrom]:       0.000     0.000    15.000   |c| =    15.000000
 CELL| Angle (b,c), alpha [degree]:                                    90.000000
 CELL| Angle (a,c), beta  [degree]:                                    90.000000
 CELL| Angle (a,b), gamma [degree]:                                   120.000000
 CELL| Numerically orthorhombic:                                              NO
 CELL| Periodicity                                                            XY

 CELL_REF| Volume [angstrom^3]:                                        81.840700
 CELL_REF| Vector a [angstrom     2.510     0.000     0.000   |a| =     2.510000
 CELL_REF| Vector b [angstrom    -1.255     2.174     0.000   |b| =     2.510000
 CELL_REF| Vector c [angstrom     0.000     0.000    15.000   |c| =    15.000000
 CELL_REF| Angle (b,c), alpha [degree]:                                90.000000
 CELL_REF| Angle (a,c), beta  [degree]:                                90.000000
 CELL_REF| Angle (a,b), gamma [degree]:                               120.000000
 CELL_REF| Numerically orthorhombic:                                          NO
 CELL_REF| Periodicity                                                        XY

 *******************************************************************************
                                    Kpoints
 *******************************************************************************
 BRILLOUIN| K-point scheme                                        Monkhorst-Pack
 BRILLOUIN| K-Point grid                                            48   48    1
 BRILLOUIN| Accuracy in Symmetry determination                      0.100000E-05
 BRILLOUIN| K-Point point group symmetrization                               OFF
 BRILLOUIN| Wavefunction type                                            COMPLEX
 BRILLOUIN| List of Kpoints [2 Pi/Bohr]                                     1152
 BRILLOUIN| Number           Weight            X              Y              Z
 BRILLOUIN|     1           0.00087       -0.48958       -0.48958        0.00000
 BRILLOUIN|     2           0.00087       -0.48958       -0.46875        0.00000
 BRILLOUIN|     3           0.00087       -0.48958       -0.44792        0.00000
 BRILLOUIN|     4           0.00087       -0.48958       -0.42708        0.00000
 BRILLOUIN|     5           0.00087       -0.48958       -0.40625        0.00000
 BRILLOUIN|     6           0.00087       -0.48958       -0.38542        0.00000
 BRILLOUIN|     7           0.00087       -0.48958       -0.36458        0.00000
 BRILLOUIN|     8           0.00087       -0.48958       -0.34375        0.00000
 BRILLOUIN|     9           0.00087       -0.48958       -0.32292        0.00000
 BRILLOUIN|    10           0.00087       -0.48958       -0.30208        0.00000
 BRILLOUIN|    11           0.00087       -0.48958       -0.28125        0.00000
 BRILLOUIN|    12           0.00087       -0.48958       -0.26042        0.00000
 BRILLOUIN|    13           0.00087       -0.48958       -0.23958        0.00000
 BRILLOUIN|    14           0.00087       -0.48958       -0.21875        0.00000
 BRILLOUIN|    15           0.00087       -0.48958       -0.19792        0.00000
 BRILLOUIN|    16           0.00087       -0.48958       -0.17708        0.00000
 BRILLOUIN|    17           0.00087       -0.48958       -0.15625        0.00000
 BRILLOUIN|    18           0.00087       -0.48958       -0.13542        0.00000
 BRILLOUIN|    19           0.00087       -0.48958       -0.11458        0.00000
 BRILLOUIN|    20           0.00087       -0.48958       -0.09375        0.00000
 BRILLOUIN|    21           0.00087       -0.48958       -0.07292        0.00000
 BRILLOUIN|    22           0.00087       -0.48958       -0.05208        0.00000
 BRILLOUIN|    23           0.00087       -0.48958       -0.03125        0.00000
 BRILLOUIN|    24           0.00087       -0.48958       -0.01042        0.00000
 BRILLOUIN|    25           0.00087       -0.48958        0.01042        0.00000
 BRILLOUIN|    26           0.00087       -0.48958        0.03125        0.00000
 BRILLOUIN|    27           0.00087       -0.48958        0.05208        0.00000
 BRILLOUIN|    28           0.00087       -0.48958        0.07292        0.00000
 BRILLOUIN|    29           0.00087       -0.48958        0.09375        0.00000
 BRILLOUIN|    30           0.00087       -0.48958        0.11458        0.00000
 BRILLOUIN|    31           0.00087       -0.48958        0.13542        0.00000
 BRILLOUIN|    32           0.00087       -0.48958        0.15625        0.00000
 BRILLOUIN|    33           0.00087       -0.48958        0.17708        0.00000
 BRILLOUIN|    34           0.00087       -0.48958        0.19792        0.00000
 BRILLOUIN|    35           0.00087       -0.48958        0.21875        0.00000
 BRILLOUIN|    36           0.00087       -0.48958        0.23958        0.00000
 BRILLOUIN|    37           0.00087       -0.48958        0.26042        0.00000
 BRILLOUIN|    38           0.00087       -0.48958        0.28125        0.00000
 BRILLOUIN|    39           0.00087       -0.48958        0.30208        0.00000
 BRILLOUIN|    40           0.00087       -0.48958        0.32292        0.00000
 BRILLOUIN|    41           0.00087       -0.48958        0.34375        0.00000
 BRILLOUIN|    42           0.00087       -0.48958        0.36458        0.00000
 BRILLOUIN|    43           0.00087       -0.48958        0.38542        0.00000
 BRILLOUIN|    44           0.00087       -0.48958        0.40625        0.00000
 BRILLOUIN|    45           0.00087       -0.48958        0.42708        0.00000
 BRILLOUIN|    46           0.00087       -0.48958        0.44792        0.00000
 BRILLOUIN|    47           0.00087       -0.48958        0.46875        0.00000
 BRILLOUIN|    48           0.00087       -0.48958        0.48958        0.00000
 BRILLOUIN|    49           0.00087       -0.46875       -0.48958        0.00000
 BRILLOUIN|    50           0.00087       -0.46875       -0.46875        0.00000
 BRILLOUIN|    51           0.00087       -0.46875       -0.44792        0.00000
 BRILLOUIN|    52           0.00087       -0.46875       -0.42708        0.00000
 BRILLOUIN|    53           0.00087       -0.46875       -0.40625        0.00000
 BRILLOUIN|    54           0.00087       -0.46875       -0.38542        0.00000
 BRILLOUIN|    55           0.00087       -0.46875       -0.36458        0.00000
 BRILLOUIN|    56           0.00087       -0.46875       -0.34375        0.00000
 BRILLOUIN|    57           0.00087       -0.46875       -0.32292        0.00000
 BRILLOUIN|    58           0.00087       -0.46875       -0.30208        0.00000
 BRILLOUIN|    59           0.00087       -0.46875       -0.28125        0.00000
 BRILLOUIN|    60           0.00087       -0.46875       -0.26042        0.00000
 BRILLOUIN|    61           0.00087       -0.46875       -0.23958        0.00000
 BRILLOUIN|    62           0.00087       -0.46875       -0.21875        0.00000
 BRILLOUIN|    63           0.00087       -0.46875       -0.19792        0.00000
 BRILLOUIN|    64           0.00087       -0.46875       -0.17708        0.00000
 BRILLOUIN|    65           0.00087       -0.46875       -0.15625        0.00000
 BRILLOUIN|    66           0.00087       -0.46875       -0.13542        0.00000
 BRILLOUIN|    67           0.00087       -0.46875       -0.11458        0.00000
 BRILLOUIN|    68           0.00087       -0.46875       -0.09375        0.00000
 BRILLOUIN|    69           0.00087       -0.46875       -0.07292        0.00000
 BRILLOUIN|    70           0.00087       -0.46875       -0.05208        0.00000
 BRILLOUIN|    71           0.00087       -0.46875       -0.03125        0.00000
 BRILLOUIN|    72           0.00087       -0.46875       -0.01042        0.00000
 BRILLOUIN|    73           0.00087       -0.46875        0.01042        0.00000
 BRILLOUIN|    74           0.00087       -0.46875        0.03125        0.00000
 BRILLOUIN|    75           0.00087       -0.46875        0.05208        0.00000
 BRILLOUIN|    76           0.00087       -0.46875        0.07292        0.00000
 BRILLOUIN|    77           0.00087       -0.46875        0.09375        0.00000
 BRILLOUIN|    78           0.00087       -0.46875        0.11458        0.00000
 BRILLOUIN|    79           0.00087       -0.46875        0.13542        0.00000
 BRILLOUIN|    80           0.00087       -0.46875        0.15625        0.00000
 BRILLOUIN|    81           0.00087       -0.46875        0.17708        0.00000
 BRILLOUIN|    82           0.00087       -0.46875        0.19792        0.00000
 BRILLOUIN|    83           0.00087       -0.46875        0.21875        0.00000
 BRILLOUIN|    84           0.00087       -0.46875        0.23958        0.00000
 BRILLOUIN|    85           0.00087       -0.46875        0.26042        0.00000
 BRILLOUIN|    86           0.00087       -0.46875        0.28125        0.00000
 BRILLOUIN|    87           0.00087       -0.46875        0.30208        0.00000
 BRILLOUIN|    88           0.00087       -0.46875        0.32292        0.00000
 BRILLOUIN|    89           0.00087       -0.46875        0.34375        0.00000
 BRILLOUIN|    90           0.00087       -0.46875        0.36458        0.00000
 BRILLOUIN|    91           0.00087       -0.46875        0.38542        0.00000
 BRILLOUIN|    92           0.00087       -0.46875        0.40625        0.00000
 BRILLOUIN|    93           0.00087       -0.46875        0.42708        0.00000
 BRILLOUIN|    94           0.00087       -0.46875        0.44792        0.00000
 BRILLOUIN|    95           0.00087       -0.46875        0.46875        0.00000
 BRILLOUIN|    96           0.00087       -0.46875        0.48958        0.00000
 BRILLOUIN|    97           0.00087       -0.44792       -0.48958        0.00000
 BRILLOUIN|    98           0.00087       -0.44792       -0.46875        0.00000
 BRILLOUIN|    99           0.00087       -0.44792       -0.44792        0.00000
 BRILLOUIN|   100           0.00087       -0.44792       -0.42708        0.00000
 BRILLOUIN|   101           0.00087       -0.44792       -0.40625        0.00000
 BRILLOUIN|   102           0.00087       -0.44792       -0.38542        0.00000
 BRILLOUIN|   103           0.00087       -0.44792       -0.36458        0.00000
 BRILLOUIN|   104           0.00087       -0.44792       -0.34375        0.00000
 BRILLOUIN|   105           0.00087       -0.44792       -0.32292        0.00000
 BRILLOUIN|   106           0.00087       -0.44792       -0.30208        0.00000
 BRILLOUIN|   107           0.00087       -0.44792       -0.28125        0.00000
 BRILLOUIN|   108           0.00087       -0.44792       -0.26042        0.00000
 BRILLOUIN|   109           0.00087       -0.44792       -0.23958        0.00000
 BRILLOUIN|   110           0.00087       -0.44792       -0.21875        0.00000
 BRILLOUIN|   111           0.00087       -0.44792       -0.19792        0.00000
 BRILLOUIN|   112           0.00087       -0.44792       -0.17708        0.00000
 BRILLOUIN|   113           0.00087       -0.44792       -0.15625        0.00000
 BRILLOUIN|   114           0.00087       -0.44792       -0.13542        0.00000
 BRILLOUIN|   115           0.00087       -0.44792       -0.11458        0.00000
 BRILLOUIN|   116           0.00087       -0.44792       -0.09375        0.00000
 BRILLOUIN|   117           0.00087       -0.44792       -0.07292        0.00000
 BRILLOUIN|   118           0.00087       -0.44792       -0.05208        0.00000
 BRILLOUIN|   119           0.00087       -0.44792       -0.03125        0.00000
 BRILLOUIN|   120           0.00087       -0.44792       -0.01042        0.00000
 BRILLOUIN|   121           0.00087       -0.44792        0.01042        0.00000
 BRILLOUIN|   122           0.00087       -0.44792        0.03125        0.00000
 BRILLOUIN|   123           0.00087       -0.44792        0.05208        0.00000
 BRILLOUIN|   124           0.00087       -0.44792        0.07292        0.00000
 BRILLOUIN|   125           0.00087       -0.44792        0.09375        0.00000
 BRILLOUIN|   126           0.00087       -0.44792        0.11458        0.00000
 BRILLOUIN|   127           0.00087       -0.44792        0.13542        0.00000
 BRILLOUIN|   128           0.00087       -0.44792        0.15625        0.00000
 BRILLOUIN|   129           0.00087       -0.44792        0.17708        0.00000
 BRILLOUIN|   130           0.00087       -0.44792        0.19792        0.00000
 BRILLOUIN|   131           0.00087       -0.44792        0.21875        0.00000
 BRILLOUIN|   132           0.00087       -0.44792        0.23958        0.00000
 BRILLOUIN|   133           0.00087       -0.44792        0.26042        0.00000
 BRILLOUIN|   134           0.00087       -0.44792        0.28125        0.00000
 BRILLOUIN|   135           0.00087       -0.44792        0.30208        0.00000
 BRILLOUIN|   136           0.00087       -0.44792        0.32292        0.00000
 BRILLOUIN|   137           0.00087       -0.44792        0.34375        0.00000
 BRILLOUIN|   138           0.00087       -0.44792        0.36458        0.00000
 BRILLOUIN|   139           0.00087       -0.44792        0.38542        0.00000
 BRILLOUIN|   140           0.00087       -0.44792        0.40625        0.00000
 BRILLOUIN|   141           0.00087       -0.44792        0.42708        0.00000
 BRILLOUIN|   142           0.00087       -0.44792        0.44792        0.00000
 BRILLOUIN|   143           0.00087       -0.44792        0.46875        0.00000
 BRILLOUIN|   144           0.00087       -0.44792        0.48958        0.00000
 BRILLOUIN|   145           0.00087       -0.42708       -0.48958        0.00000
 BRILLOUIN|   146           0.00087       -0.42708       -0.46875        0.00000
 BRILLOUIN|   147           0.00087       -0.42708       -0.44792        0.00000
 BRILLOUIN|   148           0.00087       -0.42708       -0.42708        0.00000
 BRILLOUIN|   149           0.00087       -0.42708       -0.40625        0.00000
 BRILLOUIN|   150           0.00087       -0.42708       -0.38542        0.00000
 BRILLOUIN|   151           0.00087       -0.42708       -0.36458        0.00000
 BRILLOUIN|   152           0.00087       -0.42708       -0.34375        0.00000
 BRILLOUIN|   153           0.00087       -0.42708       -0.32292        0.00000
 BRILLOUIN|   154           0.00087       -0.42708       -0.30208        0.00000
 BRILLOUIN|   155           0.00087       -0.42708       -0.28125        0.00000
 BRILLOUIN|   156           0.00087       -0.42708       -0.26042        0.00000
 BRILLOUIN|   157           0.00087       -0.42708       -0.23958        0.00000
 BRILLOUIN|   158           0.00087       -0.42708       -0.21875        0.00000
 BRILLOUIN|   159           0.00087       -0.42708       -0.19792        0.00000
 BRILLOUIN|   160           0.00087       -0.42708       -0.17708        0.00000
 BRILLOUIN|   161           0.00087       -0.42708       -0.15625        0.00000
 BRILLOUIN|   162           0.00087       -0.42708       -0.13542        0.00000
 BRILLOUIN|   163           0.00087       -0.42708       -0.11458        0.00000
 BRILLOUIN|   164           0.00087       -0.42708       -0.09375        0.00000
 BRILLOUIN|   165           0.00087       -0.42708       -0.07292        0.00000
 BRILLOUIN|   166           0.00087       -0.42708       -0.05208        0.00000
 BRILLOUIN|   167           0.00087       -0.42708       -0.03125        0.00000
 BRILLOUIN|   168           0.00087       -0.42708       -0.01042        0.00000
 BRILLOUIN|   169           0.00087       -0.42708        0.01042        0.00000
 BRILLOUIN|   170           0.00087       -0.42708        0.03125        0.00000
 BRILLOUIN|   171           0.00087       -0.42708        0.05208        0.00000
 BRILLOUIN|   172           0.00087       -0.42708        0.07292        0.00000
 BRILLOUIN|   173           0.00087       -0.42708        0.09375        0.00000
 BRILLOUIN|   174           0.00087       -0.42708        0.11458        0.00000
 BRILLOUIN|   175           0.00087       -0.42708        0.13542        0.00000
 BRILLOUIN|   176           0.00087       -0.42708        0.15625        0.00000
 BRILLOUIN|   177           0.00087       -0.42708        0.17708        0.00000
 BRILLOUIN|   178           0.00087       -0.42708        0.19792        0.00000
 BRILLOUIN|   179           0.00087       -0.42708        0.21875        0.00000
 BRILLOUIN|   180           0.00087       -0.42708        0.23958        0.00000
 BRILLOUIN|   181           0.00087       -0.42708        0.26042        0.00000
 BRILLOUIN|   182           0.00087       -0.42708        0.28125        0.00000
 BRILLOUIN|   183           0.00087       -0.42708        0.30208        0.00000
 BRILLOUIN|   184           0.00087       -0.42708        0.32292        0.00000
 BRILLOUIN|   185           0.00087       -0.42708        0.34375        0.00000
 BRILLOUIN|   186           0.00087       -0.42708        0.36458        0.00000
 BRILLOUIN|   187           0.00087       -0.42708        0.38542        0.00000
 BRILLOUIN|   188           0.00087       -0.42708        0.40625        0.00000
 BRILLOUIN|   189           0.00087       -0.42708        0.42708        0.00000
 BRILLOUIN|   190           0.00087       -0.42708        0.44792        0.00000
 BRILLOUIN|   191           0.00087       -0.42708        0.46875        0.00000
 BRILLOUIN|   192           0.00087       -0.42708        0.48958        0.00000
 BRILLOUIN|   193           0.00087       -0.40625       -0.48958        0.00000
 BRILLOUIN|   194           0.00087       -0.40625       -0.46875        0.00000
 BRILLOUIN|   195           0.00087       -0.40625       -0.44792        0.00000
 BRILLOUIN|   196           0.00087       -0.40625       -0.42708        0.00000
 BRILLOUIN|   197           0.00087       -0.40625       -0.40625        0.00000
 BRILLOUIN|   198           0.00087       -0.40625       -0.38542        0.00000
 BRILLOUIN|   199           0.00087       -0.40625       -0.36458        0.00000
 BRILLOUIN|   200           0.00087       -0.40625       -0.34375        0.00000
 BRILLOUIN|   201           0.00087       -0.40625       -0.32292        0.00000
 BRILLOUIN|   202           0.00087       -0.40625       -0.30208        0.00000
 BRILLOUIN|   203           0.00087       -0.40625       -0.28125        0.00000
 BRILLOUIN|   204           0.00087       -0.40625       -0.26042        0.00000
 BRILLOUIN|   205           0.00087       -0.40625       -0.23958        0.00000
 BRILLOUIN|   206           0.00087       -0.40625       -0.21875        0.00000
 BRILLOUIN|   207           0.00087       -0.40625       -0.19792        0.00000
 BRILLOUIN|   208           0.00087       -0.40625       -0.17708        0.00000
 BRILLOUIN|   209           0.00087       -0.40625       -0.15625        0.00000
 BRILLOUIN|   210           0.00087       -0.40625       -0.13542        0.00000
 BRILLOUIN|   211           0.00087       -0.40625       -0.11458        0.00000
 BRILLOUIN|   212           0.00087       -0.40625       -0.09375        0.00000
 BRILLOUIN|   213           0.00087       -0.40625       -0.07292        0.00000
 BRILLOUIN|   214           0.00087       -0.40625       -0.05208        0.00000
 BRILLOUIN|   215           0.00087       -0.40625       -0.03125        0.00000
 BRILLOUIN|   216           0.00087       -0.40625       -0.01042        0.00000
 BRILLOUIN|   217           0.00087       -0.40625        0.01042        0.00000
 BRILLOUIN|   218           0.00087       -0.40625        0.03125        0.00000
 BRILLOUIN|   219           0.00087       -0.40625        0.05208        0.00000
 BRILLOUIN|   220           0.00087       -0.40625        0.07292        0.00000
 BRILLOUIN|   221           0.00087       -0.40625        0.09375        0.00000
 BRILLOUIN|   222           0.00087       -0.40625        0.11458        0.00000
 BRILLOUIN|   223           0.00087       -0.40625        0.13542        0.00000
 BRILLOUIN|   224           0.00087       -0.40625        0.15625        0.00000
 BRILLOUIN|   225           0.00087       -0.40625        0.17708        0.00000
 BRILLOUIN|   226           0.00087       -0.40625        0.19792        0.00000
 BRILLOUIN|   227           0.00087       -0.40625        0.21875        0.00000
 BRILLOUIN|   228           0.00087       -0.40625        0.23958        0.00000
 BRILLOUIN|   229           0.00087       -0.40625        0.26042        0.00000
 BRILLOUIN|   230           0.00087       -0.40625        0.28125        0.00000
 BRILLOUIN|   231           0.00087       -0.40625        0.30208        0.00000
 BRILLOUIN|   232           0.00087       -0.40625        0.32292        0.00000
 BRILLOUIN|   233           0.00087       -0.40625        0.34375        0.00000
 BRILLOUIN|   234           0.00087       -0.40625        0.36458        0.00000
 BRILLOUIN|   235           0.00087       -0.40625        0.38542        0.00000
 BRILLOUIN|   236           0.00087       -0.40625        0.40625        0.00000
 BRILLOUIN|   237           0.00087       -0.40625        0.42708        0.00000
 BRILLOUIN|   238           0.00087       -0.40625        0.44792        0.00000
 BRILLOUIN|   239           0.00087       -0.40625        0.46875        0.00000
 BRILLOUIN|   240           0.00087       -0.40625        0.48958        0.00000
 BRILLOUIN|   241           0.00087       -0.38542       -0.48958        0.00000
 BRILLOUIN|   242           0.00087       -0.38542       -0.46875        0.00000
 BRILLOUIN|   243           0.00087       -0.38542       -0.44792        0.00000
 BRILLOUIN|   244           0.00087       -0.38542       -0.42708        0.00000
 BRILLOUIN|   245           0.00087       -0.38542       -0.40625        0.00000
 BRILLOUIN|   246           0.00087       -0.38542       -0.38542        0.00000
 BRILLOUIN|   247           0.00087       -0.38542       -0.36458        0.00000
 BRILLOUIN|   248           0.00087       -0.38542       -0.34375        0.00000
 BRILLOUIN|   249           0.00087       -0.38542       -0.32292        0.00000
 BRILLOUIN|   250           0.00087       -0.38542       -0.30208        0.00000
 BRILLOUIN|   251           0.00087       -0.38542       -0.28125        0.00000
 BRILLOUIN|   252           0.00087       -0.38542       -0.26042        0.00000
 BRILLOUIN|   253           0.00087       -0.38542       -0.23958        0.00000
 BRILLOUIN|   254           0.00087       -0.38542       -0.21875        0.00000
 BRILLOUIN|   255           0.00087       -0.38542       -0.19792        0.00000
 BRILLOUIN|   256           0.00087       -0.38542       -0.17708        0.00000
 BRILLOUIN|   257           0.00087       -0.38542       -0.15625        0.00000
 BRILLOUIN|   258           0.00087       -0.38542       -0.13542        0.00000
 BRILLOUIN|   259           0.00087       -0.38542       -0.11458        0.00000
 BRILLOUIN|   260           0.00087       -0.38542       -0.09375        0.00000
 BRILLOUIN|   261           0.00087       -0.38542       -0.07292        0.00000
 BRILLOUIN|   262           0.00087       -0.38542       -0.05208        0.00000
 BRILLOUIN|   263           0.00087       -0.38542       -0.03125        0.00000
 BRILLOUIN|   264           0.00087       -0.38542       -0.01042        0.00000
 BRILLOUIN|   265           0.00087       -0.38542        0.01042        0.00000
 BRILLOUIN|   266           0.00087       -0.38542        0.03125        0.00000
 BRILLOUIN|   267           0.00087       -0.38542        0.05208        0.00000
 BRILLOUIN|   268           0.00087       -0.38542        0.07292        0.00000
 BRILLOUIN|   269           0.00087       -0.38542        0.09375        0.00000
 BRILLOUIN|   270           0.00087       -0.38542        0.11458        0.00000
 BRILLOUIN|   271           0.00087       -0.38542        0.13542        0.00000
 BRILLOUIN|   272           0.00087       -0.38542        0.15625        0.00000
 BRILLOUIN|   273           0.00087       -0.38542        0.17708        0.00000
 BRILLOUIN|   274           0.00087       -0.38542        0.19792        0.00000
 BRILLOUIN|   275           0.00087       -0.38542        0.21875        0.00000
 BRILLOUIN|   276           0.00087       -0.38542        0.23958        0.00000
 BRILLOUIN|   277           0.00087       -0.38542        0.26042        0.00000
 BRILLOUIN|   278           0.00087       -0.38542        0.28125        0.00000
 BRILLOUIN|   279           0.00087       -0.38542        0.30208        0.00000
 BRILLOUIN|   280           0.00087       -0.38542        0.32292        0.00000
 BRILLOUIN|   281           0.00087       -0.38542        0.34375        0.00000
 BRILLOUIN|   282           0.00087       -0.38542        0.36458        0.00000
 BRILLOUIN|   283           0.00087       -0.38542        0.38542        0.00000
 BRILLOUIN|   284           0.00087       -0.38542        0.40625        0.00000
 BRILLOUIN|   285           0.00087       -0.38542        0.42708        0.00000
 BRILLOUIN|   286           0.00087       -0.38542        0.44792        0.00000
 BRILLOUIN|   287           0.00087       -0.38542        0.46875        0.00000
 BRILLOUIN|   288           0.00087       -0.38542        0.48958        0.00000
 BRILLOUIN|   289           0.00087       -0.36458       -0.48958        0.00000
 BRILLOUIN|   290           0.00087       -0.36458       -0.46875        0.00000
 BRILLOUIN|   291           0.00087       -0.36458       -0.44792        0.00000
 BRILLOUIN|   292           0.00087       -0.36458       -0.42708        0.00000
 BRILLOUIN|   293           0.00087       -0.36458       -0.40625        0.00000
 BRILLOUIN|   294           0.00087       -0.36458       -0.38542        0.00000
 BRILLOUIN|   295           0.00087       -0.36458       -0.36458        0.00000
 BRILLOUIN|   296           0.00087       -0.36458       -0.34375        0.00000
 BRILLOUIN|   297           0.00087       -0.36458       -0.32292        0.00000
 BRILLOUIN|   298           0.00087       -0.36458       -0.30208        0.00000
 BRILLOUIN|   299           0.00087       -0.36458       -0.28125        0.00000
 BRILLOUIN|   300           0.00087       -0.36458       -0.26042        0.00000
 BRILLOUIN|   301           0.00087       -0.36458       -0.23958        0.00000
 BRILLOUIN|   302           0.00087       -0.36458       -0.21875        0.00000
 BRILLOUIN|   303           0.00087       -0.36458       -0.19792        0.00000
 BRILLOUIN|   304           0.00087       -0.36458       -0.17708        0.00000
 BRILLOUIN|   305           0.00087       -0.36458       -0.15625        0.00000
 BRILLOUIN|   306           0.00087       -0.36458       -0.13542        0.00000
 BRILLOUIN|   307           0.00087       -0.36458       -0.11458        0.00000
 BRILLOUIN|   308           0.00087       -0.36458       -0.09375        0.00000
 BRILLOUIN|   309           0.00087       -0.36458       -0.07292        0.00000
 BRILLOUIN|   310           0.00087       -0.36458       -0.05208        0.00000
 BRILLOUIN|   311           0.00087       -0.36458       -0.03125        0.00000
 BRILLOUIN|   312           0.00087       -0.36458       -0.01042        0.00000
 BRILLOUIN|   313           0.00087       -0.36458        0.01042        0.00000
 BRILLOUIN|   314           0.00087       -0.36458        0.03125        0.00000
 BRILLOUIN|   315           0.00087       -0.36458        0.05208        0.00000
 BRILLOUIN|   316           0.00087       -0.36458        0.07292        0.00000
 BRILLOUIN|   317           0.00087       -0.36458        0.09375        0.00000
 BRILLOUIN|   318           0.00087       -0.36458        0.11458        0.00000
 BRILLOUIN|   319           0.00087       -0.36458        0.13542        0.00000
 BRILLOUIN|   320           0.00087       -0.36458        0.15625        0.00000
 BRILLOUIN|   321           0.00087       -0.36458        0.17708        0.00000
 BRILLOUIN|   322           0.00087       -0.36458        0.19792        0.00000
 BRILLOUIN|   323           0.00087       -0.36458        0.21875        0.00000
 BRILLOUIN|   324           0.00087       -0.36458        0.23958        0.00000
 BRILLOUIN|   325           0.00087       -0.36458        0.26042        0.00000
 BRILLOUIN|   326           0.00087       -0.36458        0.28125        0.00000
 BRILLOUIN|   327           0.00087       -0.36458        0.30208        0.00000
 BRILLOUIN|   328           0.00087       -0.36458        0.32292        0.00000
 BRILLOUIN|   329           0.00087       -0.36458        0.34375        0.00000
 BRILLOUIN|   330           0.00087       -0.36458        0.36458        0.00000
 BRILLOUIN|   331           0.00087       -0.36458        0.38542        0.00000
 BRILLOUIN|   332           0.00087       -0.36458        0.40625        0.00000
 BRILLOUIN|   333           0.00087       -0.36458        0.42708        0.00000
 BRILLOUIN|   334           0.00087       -0.36458        0.44792        0.00000
 BRILLOUIN|   335           0.00087       -0.36458        0.46875        0.00000
 BRILLOUIN|   336           0.00087       -0.36458        0.48958        0.00000
 BRILLOUIN|   337           0.00087       -0.34375       -0.48958        0.00000
 BRILLOUIN|   338           0.00087       -0.34375       -0.46875        0.00000
 BRILLOUIN|   339           0.00087       -0.34375       -0.44792        0.00000
 BRILLOUIN|   340           0.00087       -0.34375       -0.42708        0.00000
 BRILLOUIN|   341           0.00087       -0.34375       -0.40625        0.00000
 BRILLOUIN|   342           0.00087       -0.34375       -0.38542        0.00000
 BRILLOUIN|   343           0.00087       -0.34375       -0.36458        0.00000
 BRILLOUIN|   344           0.00087       -0.34375       -0.34375        0.00000
 BRILLOUIN|   345           0.00087       -0.34375       -0.32292        0.00000
 BRILLOUIN|   346           0.00087       -0.34375       -0.30208        0.00000
 BRILLOUIN|   347           0.00087       -0.34375       -0.28125        0.00000
 BRILLOUIN|   348           0.00087       -0.34375       -0.26042        0.00000
 BRILLOUIN|   349           0.00087       -0.34375       -0.23958        0.00000
 BRILLOUIN|   350           0.00087       -0.34375       -0.21875        0.00000
 BRILLOUIN|   351           0.00087       -0.34375       -0.19792        0.00000
 BRILLOUIN|   352           0.00087       -0.34375       -0.17708        0.00000
 BRILLOUIN|   353           0.00087       -0.34375       -0.15625        0.00000
 BRILLOUIN|   354           0.00087       -0.34375       -0.13542        0.00000
 BRILLOUIN|   355           0.00087       -0.34375       -0.11458        0.00000
 BRILLOUIN|   356           0.00087       -0.34375       -0.09375        0.00000
 BRILLOUIN|   357           0.00087       -0.34375       -0.07292        0.00000
 BRILLOUIN|   358           0.00087       -0.34375       -0.05208        0.00000
 BRILLOUIN|   359           0.00087       -0.34375       -0.03125        0.00000
 BRILLOUIN|   360           0.00087       -0.34375       -0.01042        0.00000
 BRILLOUIN|   361           0.00087       -0.34375        0.01042        0.00000
 BRILLOUIN|   362           0.00087       -0.34375        0.03125        0.00000
 BRILLOUIN|   363           0.00087       -0.34375        0.05208        0.00000
 BRILLOUIN|   364           0.00087       -0.34375        0.07292        0.00000
 BRILLOUIN|   365           0.00087       -0.34375        0.09375        0.00000
 BRILLOUIN|   366           0.00087       -0.34375        0.11458        0.00000
 BRILLOUIN|   367           0.00087       -0.34375        0.13542        0.00000
 BRILLOUIN|   368           0.00087       -0.34375        0.15625        0.00000
 BRILLOUIN|   369           0.00087       -0.34375        0.17708        0.00000
 BRILLOUIN|   370           0.00087       -0.34375        0.19792        0.00000
 BRILLOUIN|   371           0.00087       -0.34375        0.21875        0.00000
 BRILLOUIN|   372           0.00087       -0.34375        0.23958        0.00000
 BRILLOUIN|   373           0.00087       -0.34375        0.26042        0.00000
 BRILLOUIN|   374           0.00087       -0.34375        0.28125        0.00000
 BRILLOUIN|   375           0.00087       -0.34375        0.30208        0.00000
 BRILLOUIN|   376           0.00087       -0.34375        0.32292        0.00000
 BRILLOUIN|   377           0.00087       -0.34375        0.34375        0.00000
 BRILLOUIN|   378           0.00087       -0.34375        0.36458        0.00000
 BRILLOUIN|   379           0.00087       -0.34375        0.38542        0.00000
 BRILLOUIN|   380           0.00087       -0.34375        0.40625        0.00000
 BRILLOUIN|   381           0.00087       -0.34375        0.42708        0.00000
 BRILLOUIN|   382           0.00087       -0.34375        0.44792        0.00000
 BRILLOUIN|   383           0.00087       -0.34375        0.46875        0.00000
 BRILLOUIN|   384           0.00087       -0.34375        0.48958        0.00000
 BRILLOUIN|   385           0.00087       -0.32292       -0.48958        0.00000
 BRILLOUIN|   386           0.00087       -0.32292       -0.46875        0.00000
 BRILLOUIN|   387           0.00087       -0.32292       -0.44792        0.00000
 BRILLOUIN|   388           0.00087       -0.32292       -0.42708        0.00000
 BRILLOUIN|   389           0.00087       -0.32292       -0.40625        0.00000
 BRILLOUIN|   390           0.00087       -0.32292       -0.38542        0.00000
 BRILLOUIN|   391           0.00087       -0.32292       -0.36458        0.00000
 BRILLOUIN|   392           0.00087       -0.32292       -0.34375        0.00000
 BRILLOUIN|   393           0.00087       -0.32292       -0.32292        0.00000
 BRILLOUIN|   394           0.00087       -0.32292       -0.30208        0.00000
 BRILLOUIN|   395           0.00087       -0.32292       -0.28125        0.00000
 BRILLOUIN|   396           0.00087       -0.32292       -0.26042        0.00000
 BRILLOUIN|   397           0.00087       -0.32292       -0.23958        0.00000
 BRILLOUIN|   398           0.00087       -0.32292       -0.21875        0.00000
 BRILLOUIN|   399           0.00087       -0.32292       -0.19792        0.00000
 BRILLOUIN|   400           0.00087       -0.32292       -0.17708        0.00000
 BRILLOUIN|   401           0.00087       -0.32292       -0.15625        0.00000
 BRILLOUIN|   402           0.00087       -0.32292       -0.13542        0.00000
 BRILLOUIN|   403           0.00087       -0.32292       -0.11458        0.00000
 BRILLOUIN|   404           0.00087       -0.32292       -0.09375        0.00000
 BRILLOUIN|   405           0.00087       -0.32292       -0.07292        0.00000
 BRILLOUIN|   406           0.00087       -0.32292       -0.05208        0.00000
 BRILLOUIN|   407           0.00087       -0.32292       -0.03125        0.00000
 BRILLOUIN|   408           0.00087       -0.32292       -0.01042        0.00000
 BRILLOUIN|   409           0.00087       -0.32292        0.01042        0.00000
 BRILLOUIN|   410           0.00087       -0.32292        0.03125        0.00000
 BRILLOUIN|   411           0.00087       -0.32292        0.05208        0.00000
 BRILLOUIN|   412           0.00087       -0.32292        0.07292        0.00000
 BRILLOUIN|   413           0.00087       -0.32292        0.09375        0.00000
 BRILLOUIN|   414           0.00087       -0.32292        0.11458        0.00000
 BRILLOUIN|   415           0.00087       -0.32292        0.13542        0.00000
 BRILLOUIN|   416           0.00087       -0.32292        0.15625        0.00000
 BRILLOUIN|   417           0.00087       -0.32292        0.17708        0.00000
 BRILLOUIN|   418           0.00087       -0.32292        0.19792        0.00000
 BRILLOUIN|   419           0.00087       -0.32292        0.21875        0.00000
 BRILLOUIN|   420           0.00087       -0.32292        0.23958        0.00000
 BRILLOUIN|   421           0.00087       -0.32292        0.26042        0.00000
 BRILLOUIN|   422           0.00087       -0.32292        0.28125        0.00000
 BRILLOUIN|   423           0.00087       -0.32292        0.30208        0.00000
 BRILLOUIN|   424           0.00087       -0.32292        0.32292        0.00000
 BRILLOUIN|   425           0.00087       -0.32292        0.34375        0.00000
 BRILLOUIN|   426           0.00087       -0.32292        0.36458        0.00000
 BRILLOUIN|   427           0.00087       -0.32292        0.38542        0.00000
 BRILLOUIN|   428           0.00087       -0.32292        0.40625        0.00000
 BRILLOUIN|   429           0.00087       -0.32292        0.42708        0.00000
 BRILLOUIN|   430           0.00087       -0.32292        0.44792        0.00000
 BRILLOUIN|   431           0.00087       -0.32292        0.46875        0.00000
 BRILLOUIN|   432           0.00087       -0.32292        0.48958        0.00000
 BRILLOUIN|   433           0.00087       -0.30208       -0.48958        0.00000
 BRILLOUIN|   434           0.00087       -0.30208       -0.46875        0.00000
 BRILLOUIN|   435           0.00087       -0.30208       -0.44792        0.00000
 BRILLOUIN|   436           0.00087       -0.30208       -0.42708        0.00000
 BRILLOUIN|   437           0.00087       -0.30208       -0.40625        0.00000
 BRILLOUIN|   438           0.00087       -0.30208       -0.38542        0.00000
 BRILLOUIN|   439           0.00087       -0.30208       -0.36458        0.00000
 BRILLOUIN|   440           0.00087       -0.30208       -0.34375        0.00000
 BRILLOUIN|   441           0.00087       -0.30208       -0.32292        0.00000
 BRILLOUIN|   442           0.00087       -0.30208       -0.30208        0.00000
 BRILLOUIN|   443           0.00087       -0.30208       -0.28125        0.00000
 BRILLOUIN|   444           0.00087       -0.30208       -0.26042        0.00000
 BRILLOUIN|   445           0.00087       -0.30208       -0.23958        0.00000
 BRILLOUIN|   446           0.00087       -0.30208       -0.21875        0.00000
 BRILLOUIN|   447           0.00087       -0.30208       -0.19792        0.00000
 BRILLOUIN|   448           0.00087       -0.30208       -0.17708        0.00000
 BRILLOUIN|   449           0.00087       -0.30208       -0.15625        0.00000
 BRILLOUIN|   450           0.00087       -0.30208       -0.13542        0.00000
 BRILLOUIN|   451           0.00087       -0.30208       -0.11458        0.00000
 BRILLOUIN|   452           0.00087       -0.30208       -0.09375        0.00000
 BRILLOUIN|   453           0.00087       -0.30208       -0.07292        0.00000
 BRILLOUIN|   454           0.00087       -0.30208       -0.05208        0.00000
 BRILLOUIN|   455           0.00087       -0.30208       -0.03125        0.00000
 BRILLOUIN|   456           0.00087       -0.30208       -0.01042        0.00000
 BRILLOUIN|   457           0.00087       -0.30208        0.01042        0.00000
 BRILLOUIN|   458           0.00087       -0.30208        0.03125        0.00000
 BRILLOUIN|   459           0.00087       -0.30208        0.05208        0.00000
 BRILLOUIN|   460           0.00087       -0.30208        0.07292        0.00000
 BRILLOUIN|   461           0.00087       -0.30208        0.09375        0.00000
 BRILLOUIN|   462           0.00087       -0.30208        0.11458        0.00000
 BRILLOUIN|   463           0.00087       -0.30208        0.13542        0.00000
 BRILLOUIN|   464           0.00087       -0.30208        0.15625        0.00000
 BRILLOUIN|   465           0.00087       -0.30208        0.17708        0.00000
 BRILLOUIN|   466           0.00087       -0.30208        0.19792        0.00000
 BRILLOUIN|   467           0.00087       -0.30208        0.21875        0.00000
 BRILLOUIN|   468           0.00087       -0.30208        0.23958        0.00000
 BRILLOUIN|   469           0.00087       -0.30208        0.26042        0.00000
 BRILLOUIN|   470           0.00087       -0.30208        0.28125        0.00000
 BRILLOUIN|   471           0.00087       -0.30208        0.30208        0.00000
 BRILLOUIN|   472           0.00087       -0.30208        0.32292        0.00000
 BRILLOUIN|   473           0.00087       -0.30208        0.34375        0.00000
 BRILLOUIN|   474           0.00087       -0.30208        0.36458        0.00000
 BRILLOUIN|   475           0.00087       -0.30208        0.38542        0.00000
 BRILLOUIN|   476           0.00087       -0.30208        0.40625        0.00000
 BRILLOUIN|   477           0.00087       -0.30208        0.42708        0.00000
 BRILLOUIN|   478           0.00087       -0.30208        0.44792        0.00000
 BRILLOUIN|   479           0.00087       -0.30208        0.46875        0.00000
 BRILLOUIN|   480           0.00087       -0.30208        0.48958        0.00000
 BRILLOUIN|   481           0.00087       -0.28125       -0.48958        0.00000
 BRILLOUIN|   482           0.00087       -0.28125       -0.46875        0.00000
 BRILLOUIN|   483           0.00087       -0.28125       -0.44792        0.00000
 BRILLOUIN|   484           0.00087       -0.28125       -0.42708        0.00000
 BRILLOUIN|   485           0.00087       -0.28125       -0.40625        0.00000
 BRILLOUIN|   486           0.00087       -0.28125       -0.38542        0.00000
 BRILLOUIN|   487           0.00087       -0.28125       -0.36458        0.00000
 BRILLOUIN|   488           0.00087       -0.28125       -0.34375        0.00000
 BRILLOUIN|   489           0.00087       -0.28125       -0.32292        0.00000
 BRILLOUIN|   490           0.00087       -0.28125       -0.30208        0.00000
 BRILLOUIN|   491           0.00087       -0.28125       -0.28125        0.00000
 BRILLOUIN|   492           0.00087       -0.28125       -0.26042        0.00000
 BRILLOUIN|   493           0.00087       -0.28125       -0.23958        0.00000
 BRILLOUIN|   494           0.00087       -0.28125       -0.21875        0.00000
 BRILLOUIN|   495           0.00087       -0.28125       -0.19792        0.00000
 BRILLOUIN|   496           0.00087       -0.28125       -0.17708        0.00000
 BRILLOUIN|   497           0.00087       -0.28125       -0.15625        0.00000
 BRILLOUIN|   498           0.00087       -0.28125       -0.13542        0.00000
 BRILLOUIN|   499           0.00087       -0.28125       -0.11458        0.00000
 BRILLOUIN|   500           0.00087       -0.28125       -0.09375        0.00000
 BRILLOUIN|   501           0.00087       -0.28125       -0.07292        0.00000
 BRILLOUIN|   502           0.00087       -0.28125       -0.05208        0.00000
 BRILLOUIN|   503           0.00087       -0.28125       -0.03125        0.00000
 BRILLOUIN|   504           0.00087       -0.28125       -0.01042        0.00000
 BRILLOUIN|   505           0.00087       -0.28125        0.01042        0.00000
 BRILLOUIN|   506           0.00087       -0.28125        0.03125        0.00000
 BRILLOUIN|   507           0.00087       -0.28125        0.05208        0.00000
 BRILLOUIN|   508           0.00087       -0.28125        0.07292        0.00000
 BRILLOUIN|   509           0.00087       -0.28125        0.09375        0.00000
 BRILLOUIN|   510           0.00087       -0.28125        0.11458        0.00000
 BRILLOUIN|   511           0.00087       -0.28125        0.13542        0.00000
 BRILLOUIN|   512           0.00087       -0.28125        0.15625        0.00000
 BRILLOUIN|   513           0.00087       -0.28125        0.17708        0.00000
 BRILLOUIN|   514           0.00087       -0.28125        0.19792        0.00000
 BRILLOUIN|   515           0.00087       -0.28125        0.21875        0.00000
 BRILLOUIN|   516           0.00087       -0.28125        0.23958        0.00000
 BRILLOUIN|   517           0.00087       -0.28125        0.26042        0.00000
 BRILLOUIN|   518           0.00087       -0.28125        0.28125        0.00000
 BRILLOUIN|   519           0.00087       -0.28125        0.30208        0.00000
 BRILLOUIN|   520           0.00087       -0.28125        0.32292        0.00000
 BRILLOUIN|   521           0.00087       -0.28125        0.34375        0.00000
 BRILLOUIN|   522           0.00087       -0.28125        0.36458        0.00000
 BRILLOUIN|   523           0.00087       -0.28125        0.38542        0.00000
 BRILLOUIN|   524           0.00087       -0.28125        0.40625        0.00000
 BRILLOUIN|   525           0.00087       -0.28125        0.42708        0.00000
 BRILLOUIN|   526           0.00087       -0.28125        0.44792        0.00000
 BRILLOUIN|   527           0.00087       -0.28125        0.46875        0.00000
 BRILLOUIN|   528           0.00087       -0.28125        0.48958        0.00000
 BRILLOUIN|   529           0.00087       -0.26042       -0.48958        0.00000
 BRILLOUIN|   530           0.00087       -0.26042       -0.46875        0.00000
 BRILLOUIN|   531           0.00087       -0.26042       -0.44792        0.00000
 BRILLOUIN|   532           0.00087       -0.26042       -0.42708        0.00000
 BRILLOUIN|   533           0.00087       -0.26042       -0.40625        0.00000
 BRILLOUIN|   534           0.00087       -0.26042       -0.38542        0.00000
 BRILLOUIN|   535           0.00087       -0.26042       -0.36458        0.00000
 BRILLOUIN|   536           0.00087       -0.26042       -0.34375        0.00000
 BRILLOUIN|   537           0.00087       -0.26042       -0.32292        0.00000
 BRILLOUIN|   538           0.00087       -0.26042       -0.30208        0.00000
 BRILLOUIN|   539           0.00087       -0.26042       -0.28125        0.00000
 BRILLOUIN|   540           0.00087       -0.26042       -0.26042        0.00000
 BRILLOUIN|   541           0.00087       -0.26042       -0.23958        0.00000
 BRILLOUIN|   542           0.00087       -0.26042       -0.21875        0.00000
 BRILLOUIN|   543           0.00087       -0.26042       -0.19792        0.00000
 BRILLOUIN|   544           0.00087       -0.26042       -0.17708        0.00000
 BRILLOUIN|   545           0.00087       -0.26042       -0.15625        0.00000
 BRILLOUIN|   546           0.00087       -0.26042       -0.13542        0.00000
 BRILLOUIN|   547           0.00087       -0.26042       -0.11458        0.00000
 BRILLOUIN|   548           0.00087       -0.26042       -0.09375        0.00000
 BRILLOUIN|   549           0.00087       -0.26042       -0.07292        0.00000
 BRILLOUIN|   550           0.00087       -0.26042       -0.05208        0.00000
 BRILLOUIN|   551           0.00087       -0.26042       -0.03125        0.00000
 BRILLOUIN|   552           0.00087       -0.26042       -0.01042        0.00000
 BRILLOUIN|   553           0.00087       -0.26042        0.01042        0.00000
 BRILLOUIN|   554           0.00087       -0.26042        0.03125        0.00000
 BRILLOUIN|   555           0.00087       -0.26042        0.05208        0.00000
 BRILLOUIN|   556           0.00087       -0.26042        0.07292        0.00000
 BRILLOUIN|   557           0.00087       -0.26042        0.09375        0.00000
 BRILLOUIN|   558           0.00087       -0.26042        0.11458        0.00000
 BRILLOUIN|   559           0.00087       -0.26042        0.13542        0.00000
 BRILLOUIN|   560           0.00087       -0.26042        0.15625        0.00000
 BRILLOUIN|   561           0.00087       -0.26042        0.17708        0.00000
 BRILLOUIN|   562           0.00087       -0.26042        0.19792        0.00000
 BRILLOUIN|   563           0.00087       -0.26042        0.21875        0.00000
 BRILLOUIN|   564           0.00087       -0.26042        0.23958        0.00000
 BRILLOUIN|   565           0.00087       -0.26042        0.26042        0.00000
 BRILLOUIN|   566           0.00087       -0.26042        0.28125        0.00000
 BRILLOUIN|   567           0.00087       -0.26042        0.30208        0.00000
 BRILLOUIN|   568           0.00087       -0.26042        0.32292        0.00000
 BRILLOUIN|   569           0.00087       -0.26042        0.34375        0.00000
 BRILLOUIN|   570           0.00087       -0.26042        0.36458        0.00000
 BRILLOUIN|   571           0.00087       -0.26042        0.38542        0.00000
 BRILLOUIN|   572           0.00087       -0.26042        0.40625        0.00000
 BRILLOUIN|   573           0.00087       -0.26042        0.42708        0.00000
 BRILLOUIN|   574           0.00087       -0.26042        0.44792        0.00000
 BRILLOUIN|   575           0.00087       -0.26042        0.46875        0.00000
 BRILLOUIN|   576           0.00087       -0.26042        0.48958        0.00000
 BRILLOUIN|   577           0.00087       -0.23958       -0.48958        0.00000
 BRILLOUIN|   578           0.00087       -0.23958       -0.46875        0.00000
 BRILLOUIN|   579           0.00087       -0.23958       -0.44792        0.00000
 BRILLOUIN|   580           0.00087       -0.23958       -0.42708        0.00000
 BRILLOUIN|   581           0.00087       -0.23958       -0.40625        0.00000
 BRILLOUIN|   582           0.00087       -0.23958       -0.38542        0.00000
 BRILLOUIN|   583           0.00087       -0.23958       -0.36458        0.00000
 BRILLOUIN|   584           0.00087       -0.23958       -0.34375        0.00000
 BRILLOUIN|   585           0.00087       -0.23958       -0.32292        0.00000
 BRILLOUIN|   586           0.00087       -0.23958       -0.30208        0.00000
 BRILLOUIN|   587           0.00087       -0.23958       -0.28125        0.00000
 BRILLOUIN|   588           0.00087       -0.23958       -0.26042        0.00000
 BRILLOUIN|   589           0.00087       -0.23958       -0.23958        0.00000
 BRILLOUIN|   590           0.00087       -0.23958       -0.21875        0.00000
 BRILLOUIN|   591           0.00087       -0.23958       -0.19792        0.00000
 BRILLOUIN|   592           0.00087       -0.23958       -0.17708        0.00000
 BRILLOUIN|   593           0.00087       -0.23958       -0.15625        0.00000
 BRILLOUIN|   594           0.00087       -0.23958       -0.13542        0.00000
 BRILLOUIN|   595           0.00087       -0.23958       -0.11458        0.00000
 BRILLOUIN|   596           0.00087       -0.23958       -0.09375        0.00000
 BRILLOUIN|   597           0.00087       -0.23958       -0.07292        0.00000
 BRILLOUIN|   598           0.00087       -0.23958       -0.05208        0.00000
 BRILLOUIN|   599           0.00087       -0.23958       -0.03125        0.00000
 BRILLOUIN|   600           0.00087       -0.23958       -0.01042        0.00000
 BRILLOUIN|   601           0.00087       -0.23958        0.01042        0.00000
 BRILLOUIN|   602           0.00087       -0.23958        0.03125        0.00000
 BRILLOUIN|   603           0.00087       -0.23958        0.05208        0.00000
 BRILLOUIN|   604           0.00087       -0.23958        0.07292        0.00000
 BRILLOUIN|   605           0.00087       -0.23958        0.09375        0.00000
 BRILLOUIN|   606           0.00087       -0.23958        0.11458        0.00000
 BRILLOUIN|   607           0.00087       -0.23958        0.13542        0.00000
 BRILLOUIN|   608           0.00087       -0.23958        0.15625        0.00000
 BRILLOUIN|   609           0.00087       -0.23958        0.17708        0.00000
 BRILLOUIN|   610           0.00087       -0.23958        0.19792        0.00000
 BRILLOUIN|   611           0.00087       -0.23958        0.21875        0.00000
 BRILLOUIN|   612           0.00087       -0.23958        0.23958        0.00000
 BRILLOUIN|   613           0.00087       -0.23958        0.26042        0.00000
 BRILLOUIN|   614           0.00087       -0.23958        0.28125        0.00000
 BRILLOUIN|   615           0.00087       -0.23958        0.30208        0.00000
 BRILLOUIN|   616           0.00087       -0.23958        0.32292        0.00000
 BRILLOUIN|   617           0.00087       -0.23958        0.34375        0.00000
 BRILLOUIN|   618           0.00087       -0.23958        0.36458        0.00000
 BRILLOUIN|   619           0.00087       -0.23958        0.38542        0.00000
 BRILLOUIN|   620           0.00087       -0.23958        0.40625        0.00000
 BRILLOUIN|   621           0.00087       -0.23958        0.42708        0.00000
 BRILLOUIN|   622           0.00087       -0.23958        0.44792        0.00000
 BRILLOUIN|   623           0.00087       -0.23958        0.46875        0.00000
 BRILLOUIN|   624           0.00087       -0.23958        0.48958        0.00000
 BRILLOUIN|   625           0.00087       -0.21875       -0.48958        0.00000
 BRILLOUIN|   626           0.00087       -0.21875       -0.46875        0.00000
 BRILLOUIN|   627           0.00087       -0.21875       -0.44792        0.00000
 BRILLOUIN|   628           0.00087       -0.21875       -0.42708        0.00000
 BRILLOUIN|   629           0.00087       -0.21875       -0.40625        0.00000
 BRILLOUIN|   630           0.00087       -0.21875       -0.38542        0.00000
 BRILLOUIN|   631           0.00087       -0.21875       -0.36458        0.00000
 BRILLOUIN|   632           0.00087       -0.21875       -0.34375        0.00000
 BRILLOUIN|   633           0.00087       -0.21875       -0.32292        0.00000
 BRILLOUIN|   634           0.00087       -0.21875       -0.30208        0.00000
 BRILLOUIN|   635           0.00087       -0.21875       -0.28125        0.00000
 BRILLOUIN|   636           0.00087       -0.21875       -0.26042        0.00000
 BRILLOUIN|   637           0.00087       -0.21875       -0.23958        0.00000
 BRILLOUIN|   638           0.00087       -0.21875       -0.21875        0.00000
 BRILLOUIN|   639           0.00087       -0.21875       -0.19792        0.00000
 BRILLOUIN|   640           0.00087       -0.21875       -0.17708        0.00000
 BRILLOUIN|   641           0.00087       -0.21875       -0.15625        0.00000
 BRILLOUIN|   642           0.00087       -0.21875       -0.13542        0.00000
 BRILLOUIN|   643           0.00087       -0.21875       -0.11458        0.00000
 BRILLOUIN|   644           0.00087       -0.21875       -0.09375        0.00000
 BRILLOUIN|   645           0.00087       -0.21875       -0.07292        0.00000
 BRILLOUIN|   646           0.00087       -0.21875       -0.05208        0.00000
 BRILLOUIN|   647           0.00087       -0.21875       -0.03125        0.00000
 BRILLOUIN|   648           0.00087       -0.21875       -0.01042        0.00000
 BRILLOUIN|   649           0.00087       -0.21875        0.01042        0.00000
 BRILLOUIN|   650           0.00087       -0.21875        0.03125        0.00000
 BRILLOUIN|   651           0.00087       -0.21875        0.05208        0.00000
 BRILLOUIN|   652           0.00087       -0.21875        0.07292        0.00000
 BRILLOUIN|   653           0.00087       -0.21875        0.09375        0.00000
 BRILLOUIN|   654           0.00087       -0.21875        0.11458        0.00000
 BRILLOUIN|   655           0.00087       -0.21875        0.13542        0.00000
 BRILLOUIN|   656           0.00087       -0.21875        0.15625        0.00000
 BRILLOUIN|   657           0.00087       -0.21875        0.17708        0.00000
 BRILLOUIN|   658           0.00087       -0.21875        0.19792        0.00000
 BRILLOUIN|   659           0.00087       -0.21875        0.21875        0.00000
 BRILLOUIN|   660           0.00087       -0.21875        0.23958        0.00000
 BRILLOUIN|   661           0.00087       -0.21875        0.26042        0.00000
 BRILLOUIN|   662           0.00087       -0.21875        0.28125        0.00000
 BRILLOUIN|   663           0.00087       -0.21875        0.30208        0.00000
 BRILLOUIN|   664           0.00087       -0.21875        0.32292        0.00000
 BRILLOUIN|   665           0.00087       -0.21875        0.34375        0.00000
 BRILLOUIN|   666           0.00087       -0.21875        0.36458        0.00000
 BRILLOUIN|   667           0.00087       -0.21875        0.38542        0.00000
 BRILLOUIN|   668           0.00087       -0.21875        0.40625        0.00000
 BRILLOUIN|   669           0.00087       -0.21875        0.42708        0.00000
 BRILLOUIN|   670           0.00087       -0.21875        0.44792        0.00000
 BRILLOUIN|   671           0.00087       -0.21875        0.46875        0.00000
 BRILLOUIN|   672           0.00087       -0.21875        0.48958        0.00000
 BRILLOUIN|   673           0.00087       -0.19792       -0.48958        0.00000
 BRILLOUIN|   674           0.00087       -0.19792       -0.46875        0.00000
 BRILLOUIN|   675           0.00087       -0.19792       -0.44792        0.00000
 BRILLOUIN|   676           0.00087       -0.19792       -0.42708        0.00000
 BRILLOUIN|   677           0.00087       -0.19792       -0.40625        0.00000
 BRILLOUIN|   678           0.00087       -0.19792       -0.38542        0.00000
 BRILLOUIN|   679           0.00087       -0.19792       -0.36458        0.00000
 BRILLOUIN|   680           0.00087       -0.19792       -0.34375        0.00000
 BRILLOUIN|   681           0.00087       -0.19792       -0.32292        0.00000
 BRILLOUIN|   682           0.00087       -0.19792       -0.30208        0.00000
 BRILLOUIN|   683           0.00087       -0.19792       -0.28125        0.00000
 BRILLOUIN|   684           0.00087       -0.19792       -0.26042        0.00000
 BRILLOUIN|   685           0.00087       -0.19792       -0.23958        0.00000
 BRILLOUIN|   686           0.00087       -0.19792       -0.21875        0.00000
 BRILLOUIN|   687           0.00087       -0.19792       -0.19792        0.00000
 BRILLOUIN|   688           0.00087       -0.19792       -0.17708        0.00000
 BRILLOUIN|   689           0.00087       -0.19792       -0.15625        0.00000
 BRILLOUIN|   690           0.00087       -0.19792       -0.13542        0.00000
 BRILLOUIN|   691           0.00087       -0.19792       -0.11458        0.00000
 BRILLOUIN|   692           0.00087       -0.19792       -0.09375        0.00000
 BRILLOUIN|   693           0.00087       -0.19792       -0.07292        0.00000
 BRILLOUIN|   694           0.00087       -0.19792       -0.05208        0.00000
 BRILLOUIN|   695           0.00087       -0.19792       -0.03125        0.00000
 BRILLOUIN|   696           0.00087       -0.19792       -0.01042        0.00000
 BRILLOUIN|   697           0.00087       -0.19792        0.01042        0.00000
 BRILLOUIN|   698           0.00087       -0.19792        0.03125        0.00000
 BRILLOUIN|   699           0.00087       -0.19792        0.05208        0.00000
 BRILLOUIN|   700           0.00087       -0.19792        0.07292        0.00000
 BRILLOUIN|   701           0.00087       -0.19792        0.09375        0.00000
 BRILLOUIN|   702           0.00087       -0.19792        0.11458        0.00000
 BRILLOUIN|   703           0.00087       -0.19792        0.13542        0.00000
 BRILLOUIN|   704           0.00087       -0.19792        0.15625        0.00000
 BRILLOUIN|   705           0.00087       -0.19792        0.17708        0.00000
 BRILLOUIN|   706           0.00087       -0.19792        0.19792        0.00000
 BRILLOUIN|   707           0.00087       -0.19792        0.21875        0.00000
 BRILLOUIN|   708           0.00087       -0.19792        0.23958        0.00000
 BRILLOUIN|   709           0.00087       -0.19792        0.26042        0.00000
 BRILLOUIN|   710           0.00087       -0.19792        0.28125        0.00000
 BRILLOUIN|   711           0.00087       -0.19792        0.30208        0.00000
 BRILLOUIN|   712           0.00087       -0.19792        0.32292        0.00000
 BRILLOUIN|   713           0.00087       -0.19792        0.34375        0.00000
 BRILLOUIN|   714           0.00087       -0.19792        0.36458        0.00000
 BRILLOUIN|   715           0.00087       -0.19792        0.38542        0.00000
 BRILLOUIN|   716           0.00087       -0.19792        0.40625        0.00000
 BRILLOUIN|   717           0.00087       -0.19792        0.42708        0.00000
 BRILLOUIN|   718           0.00087       -0.19792        0.44792        0.00000
 BRILLOUIN|   719           0.00087       -0.19792        0.46875        0.00000
 BRILLOUIN|   720           0.00087       -0.19792        0.48958        0.00000
 BRILLOUIN|   721           0.00087       -0.17708       -0.48958        0.00000
 BRILLOUIN|   722           0.00087       -0.17708       -0.46875        0.00000
 BRILLOUIN|   723           0.00087       -0.17708       -0.44792        0.00000
 BRILLOUIN|   724           0.00087       -0.17708       -0.42708        0.00000
 BRILLOUIN|   725           0.00087       -0.17708       -0.40625        0.00000
 BRILLOUIN|   726           0.00087       -0.17708       -0.38542        0.00000
 BRILLOUIN|   727           0.00087       -0.17708       -0.36458        0.00000
 BRILLOUIN|   728           0.00087       -0.17708       -0.34375        0.00000
 BRILLOUIN|   729           0.00087       -0.17708       -0.32292        0.00000
 BRILLOUIN|   730           0.00087       -0.17708       -0.30208        0.00000
 BRILLOUIN|   731           0.00087       -0.17708       -0.28125        0.00000
 BRILLOUIN|   732           0.00087       -0.17708       -0.26042        0.00000
 BRILLOUIN|   733           0.00087       -0.17708       -0.23958        0.00000
 BRILLOUIN|   734           0.00087       -0.17708       -0.21875        0.00000
 BRILLOUIN|   735           0.00087       -0.17708       -0.19792        0.00000
 BRILLOUIN|   736           0.00087       -0.17708       -0.17708        0.00000
 BRILLOUIN|   737           0.00087       -0.17708       -0.15625        0.00000
 BRILLOUIN|   738           0.00087       -0.17708       -0.13542        0.00000
 BRILLOUIN|   739           0.00087       -0.17708       -0.11458        0.00000
 BRILLOUIN|   740           0.00087       -0.17708       -0.09375        0.00000
 BRILLOUIN|   741           0.00087       -0.17708       -0.07292        0.00000
 BRILLOUIN|   742           0.00087       -0.17708       -0.05208        0.00000
 BRILLOUIN|   743           0.00087       -0.17708       -0.03125        0.00000
 BRILLOUIN|   744           0.00087       -0.17708       -0.01042        0.00000
 BRILLOUIN|   745           0.00087       -0.17708        0.01042        0.00000
 BRILLOUIN|   746           0.00087       -0.17708        0.03125        0.00000
 BRILLOUIN|   747           0.00087       -0.17708        0.05208        0.00000
 BRILLOUIN|   748           0.00087       -0.17708        0.07292        0.00000
 BRILLOUIN|   749           0.00087       -0.17708        0.09375        0.00000
 BRILLOUIN|   750           0.00087       -0.17708        0.11458        0.00000
 BRILLOUIN|   751           0.00087       -0.17708        0.13542        0.00000
 BRILLOUIN|   752           0.00087       -0.17708        0.15625        0.00000
 BRILLOUIN|   753           0.00087       -0.17708        0.17708        0.00000
 BRILLOUIN|   754           0.00087       -0.17708        0.19792        0.00000
 BRILLOUIN|   755           0.00087       -0.17708        0.21875        0.00000
 BRILLOUIN|   756           0.00087       -0.17708        0.23958        0.00000
 BRILLOUIN|   757           0.00087       -0.17708        0.26042        0.00000
 BRILLOUIN|   758           0.00087       -0.17708        0.28125        0.00000
 BRILLOUIN|   759           0.00087       -0.17708        0.30208        0.00000
 BRILLOUIN|   760           0.00087       -0.17708        0.32292        0.00000
 BRILLOUIN|   761           0.00087       -0.17708        0.34375        0.00000
 BRILLOUIN|   762           0.00087       -0.17708        0.36458        0.00000
 BRILLOUIN|   763           0.00087       -0.17708        0.38542        0.00000
 BRILLOUIN|   764           0.00087       -0.17708        0.40625        0.00000
 BRILLOUIN|   765           0.00087       -0.17708        0.42708        0.00000
 BRILLOUIN|   766           0.00087       -0.17708        0.44792        0.00000
 BRILLOUIN|   767           0.00087       -0.17708        0.46875        0.00000
 BRILLOUIN|   768           0.00087       -0.17708        0.48958        0.00000
 BRILLOUIN|   769           0.00087       -0.15625       -0.48958        0.00000
 BRILLOUIN|   770           0.00087       -0.15625       -0.46875        0.00000
 BRILLOUIN|   771           0.00087       -0.15625       -0.44792        0.00000
 BRILLOUIN|   772           0.00087       -0.15625       -0.42708        0.00000
 BRILLOUIN|   773           0.00087       -0.15625       -0.40625        0.00000
 BRILLOUIN|   774           0.00087       -0.15625       -0.38542        0.00000
 BRILLOUIN|   775           0.00087       -0.15625       -0.36458        0.00000
 BRILLOUIN|   776           0.00087       -0.15625       -0.34375        0.00000
 BRILLOUIN|   777           0.00087       -0.15625       -0.32292        0.00000
 BRILLOUIN|   778           0.00087       -0.15625       -0.30208        0.00000
 BRILLOUIN|   779           0.00087       -0.15625       -0.28125        0.00000
 BRILLOUIN|   780           0.00087       -0.15625       -0.26042        0.00000
 BRILLOUIN|   781           0.00087       -0.15625       -0.23958        0.00000
 BRILLOUIN|   782           0.00087       -0.15625       -0.21875        0.00000
 BRILLOUIN|   783           0.00087       -0.15625       -0.19792        0.00000
 BRILLOUIN|   784           0.00087       -0.15625       -0.17708        0.00000
 BRILLOUIN|   785           0.00087       -0.15625       -0.15625        0.00000
 BRILLOUIN|   786           0.00087       -0.15625       -0.13542        0.00000
 BRILLOUIN|   787           0.00087       -0.15625       -0.11458        0.00000
 BRILLOUIN|   788           0.00087       -0.15625       -0.09375        0.00000
 BRILLOUIN|   789           0.00087       -0.15625       -0.07292        0.00000
 BRILLOUIN|   790           0.00087       -0.15625       -0.05208        0.00000
 BRILLOUIN|   791           0.00087       -0.15625       -0.03125        0.00000
 BRILLOUIN|   792           0.00087       -0.15625       -0.01042        0.00000
 BRILLOUIN|   793           0.00087       -0.15625        0.01042        0.00000
 BRILLOUIN|   794           0.00087       -0.15625        0.03125        0.00000
 BRILLOUIN|   795           0.00087       -0.15625        0.05208        0.00000
 BRILLOUIN|   796           0.00087       -0.15625        0.07292        0.00000
 BRILLOUIN|   797           0.00087       -0.15625        0.09375        0.00000
 BRILLOUIN|   798           0.00087       -0.15625        0.11458        0.00000
 BRILLOUIN|   799           0.00087       -0.15625        0.13542        0.00000
 BRILLOUIN|   800           0.00087       -0.15625        0.15625        0.00000
 BRILLOUIN|   801           0.00087       -0.15625        0.17708        0.00000
 BRILLOUIN|   802           0.00087       -0.15625        0.19792        0.00000
 BRILLOUIN|   803           0.00087       -0.15625        0.21875        0.00000
 BRILLOUIN|   804           0.00087       -0.15625        0.23958        0.00000
 BRILLOUIN|   805           0.00087       -0.15625        0.26042        0.00000
 BRILLOUIN|   806           0.00087       -0.15625        0.28125        0.00000
 BRILLOUIN|   807           0.00087       -0.15625        0.30208        0.00000
 BRILLOUIN|   808           0.00087       -0.15625        0.32292        0.00000
 BRILLOUIN|   809           0.00087       -0.15625        0.34375        0.00000
 BRILLOUIN|   810           0.00087       -0.15625        0.36458        0.00000
 BRILLOUIN|   811           0.00087       -0.15625        0.38542        0.00000
 BRILLOUIN|   812           0.00087       -0.15625        0.40625        0.00000
 BRILLOUIN|   813           0.00087       -0.15625        0.42708        0.00000
 BRILLOUIN|   814           0.00087       -0.15625        0.44792        0.00000
 BRILLOUIN|   815           0.00087       -0.15625        0.46875        0.00000
 BRILLOUIN|   816           0.00087       -0.15625        0.48958        0.00000
 BRILLOUIN|   817           0.00087       -0.13542       -0.48958        0.00000
 BRILLOUIN|   818           0.00087       -0.13542       -0.46875        0.00000
 BRILLOUIN|   819           0.00087       -0.13542       -0.44792        0.00000
 BRILLOUIN|   820           0.00087       -0.13542       -0.42708        0.00000
 BRILLOUIN|   821           0.00087       -0.13542       -0.40625        0.00000
 BRILLOUIN|   822           0.00087       -0.13542       -0.38542        0.00000
 BRILLOUIN|   823           0.00087       -0.13542       -0.36458        0.00000
 BRILLOUIN|   824           0.00087       -0.13542       -0.34375        0.00000
 BRILLOUIN|   825           0.00087       -0.13542       -0.32292        0.00000
 BRILLOUIN|   826           0.00087       -0.13542       -0.30208        0.00000
 BRILLOUIN|   827           0.00087       -0.13542       -0.28125        0.00000
 BRILLOUIN|   828           0.00087       -0.13542       -0.26042        0.00000
 BRILLOUIN|   829           0.00087       -0.13542       -0.23958        0.00000
 BRILLOUIN|   830           0.00087       -0.13542       -0.21875        0.00000
 BRILLOUIN|   831           0.00087       -0.13542       -0.19792        0.00000
 BRILLOUIN|   832           0.00087       -0.13542       -0.17708        0.00000
 BRILLOUIN|   833           0.00087       -0.13542       -0.15625        0.00000
 BRILLOUIN|   834           0.00087       -0.13542       -0.13542        0.00000
 BRILLOUIN|   835           0.00087       -0.13542       -0.11458        0.00000
 BRILLOUIN|   836           0.00087       -0.13542       -0.09375        0.00000
 BRILLOUIN|   837           0.00087       -0.13542       -0.07292        0.00000
 BRILLOUIN|   838           0.00087       -0.13542       -0.05208        0.00000
 BRILLOUIN|   839           0.00087       -0.13542       -0.03125        0.00000
 BRILLOUIN|   840           0.00087       -0.13542       -0.01042        0.00000
 BRILLOUIN|   841           0.00087       -0.13542        0.01042        0.00000
 BRILLOUIN|   842           0.00087       -0.13542        0.03125        0.00000
 BRILLOUIN|   843           0.00087       -0.13542        0.05208        0.00000
 BRILLOUIN|   844           0.00087       -0.13542        0.07292        0.00000
 BRILLOUIN|   845           0.00087       -0.13542        0.09375        0.00000
 BRILLOUIN|   846           0.00087       -0.13542        0.11458        0.00000
 BRILLOUIN|   847           0.00087       -0.13542        0.13542        0.00000
 BRILLOUIN|   848           0.00087       -0.13542        0.15625        0.00000
 BRILLOUIN|   849           0.00087       -0.13542        0.17708        0.00000
 BRILLOUIN|   850           0.00087       -0.13542        0.19792        0.00000
 BRILLOUIN|   851           0.00087       -0.13542        0.21875        0.00000
 BRILLOUIN|   852           0.00087       -0.13542        0.23958        0.00000
 BRILLOUIN|   853           0.00087       -0.13542        0.26042        0.00000
 BRILLOUIN|   854           0.00087       -0.13542        0.28125        0.00000
 BRILLOUIN|   855           0.00087       -0.13542        0.30208        0.00000
 BRILLOUIN|   856           0.00087       -0.13542        0.32292        0.00000
 BRILLOUIN|   857           0.00087       -0.13542        0.34375        0.00000
 BRILLOUIN|   858           0.00087       -0.13542        0.36458        0.00000
 BRILLOUIN|   859           0.00087       -0.13542        0.38542        0.00000
 BRILLOUIN|   860           0.00087       -0.13542        0.40625        0.00000
 BRILLOUIN|   861           0.00087       -0.13542        0.42708        0.00000
 BRILLOUIN|   862           0.00087       -0.13542        0.44792        0.00000
 BRILLOUIN|   863           0.00087       -0.13542        0.46875        0.00000
 BRILLOUIN|   864           0.00087       -0.13542        0.48958        0.00000
 BRILLOUIN|   865           0.00087       -0.11458       -0.48958        0.00000
 BRILLOUIN|   866           0.00087       -0.11458       -0.46875        0.00000
 BRILLOUIN|   867           0.00087       -0.11458       -0.44792        0.00000
 BRILLOUIN|   868           0.00087       -0.11458       -0.42708        0.00000
 BRILLOUIN|   869           0.00087       -0.11458       -0.40625        0.00000
 BRILLOUIN|   870           0.00087       -0.11458       -0.38542        0.00000
 BRILLOUIN|   871           0.00087       -0.11458       -0.36458        0.00000
 BRILLOUIN|   872           0.00087       -0.11458       -0.34375        0.00000
 BRILLOUIN|   873           0.00087       -0.11458       -0.32292        0.00000
 BRILLOUIN|   874           0.00087       -0.11458       -0.30208        0.00000
 BRILLOUIN|   875           0.00087       -0.11458       -0.28125        0.00000
 BRILLOUIN|   876           0.00087       -0.11458       -0.26042        0.00000
 BRILLOUIN|   877           0.00087       -0.11458       -0.23958        0.00000
 BRILLOUIN|   878           0.00087       -0.11458       -0.21875        0.00000
 BRILLOUIN|   879           0.00087       -0.11458       -0.19792        0.00000
 BRILLOUIN|   880           0.00087       -0.11458       -0.17708        0.00000
 BRILLOUIN|   881           0.00087       -0.11458       -0.15625        0.00000
 BRILLOUIN|   882           0.00087       -0.11458       -0.13542        0.00000
 BRILLOUIN|   883           0.00087       -0.11458       -0.11458        0.00000
 BRILLOUIN|   884           0.00087       -0.11458       -0.09375        0.00000
 BRILLOUIN|   885           0.00087       -0.11458       -0.07292        0.00000
 BRILLOUIN|   886           0.00087       -0.11458       -0.05208        0.00000
 BRILLOUIN|   887           0.00087       -0.11458       -0.03125        0.00000
 BRILLOUIN|   888           0.00087       -0.11458       -0.01042        0.00000
 BRILLOUIN|   889           0.00087       -0.11458        0.01042        0.00000
 BRILLOUIN|   890           0.00087       -0.11458        0.03125        0.00000
 BRILLOUIN|   891           0.00087       -0.11458        0.05208        0.00000
 BRILLOUIN|   892           0.00087       -0.11458        0.07292        0.00000
 BRILLOUIN|   893           0.00087       -0.11458        0.09375        0.00000
 BRILLOUIN|   894           0.00087       -0.11458        0.11458        0.00000
 BRILLOUIN|   895           0.00087       -0.11458        0.13542        0.00000
 BRILLOUIN|   896           0.00087       -0.11458        0.15625        0.00000
 BRILLOUIN|   897           0.00087       -0.11458        0.17708        0.00000
 BRILLOUIN|   898           0.00087       -0.11458        0.19792        0.00000
 BRILLOUIN|   899           0.00087       -0.11458        0.21875        0.00000
 BRILLOUIN|   900           0.00087       -0.11458        0.23958        0.00000
 BRILLOUIN|   901           0.00087       -0.11458        0.26042        0.00000
 BRILLOUIN|   902           0.00087       -0.11458        0.28125        0.00000
 BRILLOUIN|   903           0.00087       -0.11458        0.30208        0.00000
 BRILLOUIN|   904           0.00087       -0.11458        0.32292        0.00000
 BRILLOUIN|   905           0.00087       -0.11458        0.34375        0.00000
 BRILLOUIN|   906           0.00087       -0.11458        0.36458        0.00000
 BRILLOUIN|   907           0.00087       -0.11458        0.38542        0.00000
 BRILLOUIN|   908           0.00087       -0.11458        0.40625        0.00000
 BRILLOUIN|   909           0.00087       -0.11458        0.42708        0.00000
 BRILLOUIN|   910           0.00087       -0.11458        0.44792        0.00000
 BRILLOUIN|   911           0.00087       -0.11458        0.46875        0.00000
 BRILLOUIN|   912           0.00087       -0.11458        0.48958        0.00000
 BRILLOUIN|   913           0.00087       -0.09375       -0.48958        0.00000
 BRILLOUIN|   914           0.00087       -0.09375       -0.46875        0.00000
 BRILLOUIN|   915           0.00087       -0.09375       -0.44792        0.00000
 BRILLOUIN|   916           0.00087       -0.09375       -0.42708        0.00000
 BRILLOUIN|   917           0.00087       -0.09375       -0.40625        0.00000
 BRILLOUIN|   918           0.00087       -0.09375       -0.38542        0.00000
 BRILLOUIN|   919           0.00087       -0.09375       -0.36458        0.00000
 BRILLOUIN|   920           0.00087       -0.09375       -0.34375        0.00000
 BRILLOUIN|   921           0.00087       -0.09375       -0.32292        0.00000
 BRILLOUIN|   922           0.00087       -0.09375       -0.30208        0.00000
 BRILLOUIN|   923           0.00087       -0.09375       -0.28125        0.00000
 BRILLOUIN|   924           0.00087       -0.09375       -0.26042        0.00000
 BRILLOUIN|   925           0.00087       -0.09375       -0.23958        0.00000
 BRILLOUIN|   926           0.00087       -0.09375       -0.21875        0.00000
 BRILLOUIN|   927           0.00087       -0.09375       -0.19792        0.00000
 BRILLOUIN|   928           0.00087       -0.09375       -0.17708        0.00000
 BRILLOUIN|   929           0.00087       -0.09375       -0.15625        0.00000
 BRILLOUIN|   930           0.00087       -0.09375       -0.13542        0.00000
 BRILLOUIN|   931           0.00087       -0.09375       -0.11458        0.00000
 BRILLOUIN|   932           0.00087       -0.09375       -0.09375        0.00000
 BRILLOUIN|   933           0.00087       -0.09375       -0.07292        0.00000
 BRILLOUIN|   934           0.00087       -0.09375       -0.05208        0.00000
 BRILLOUIN|   935           0.00087       -0.09375       -0.03125        0.00000
 BRILLOUIN|   936           0.00087       -0.09375       -0.01042        0.00000
 BRILLOUIN|   937           0.00087       -0.09375        0.01042        0.00000
 BRILLOUIN|   938           0.00087       -0.09375        0.03125        0.00000
 BRILLOUIN|   939           0.00087       -0.09375        0.05208        0.00000
 BRILLOUIN|   940           0.00087       -0.09375        0.07292        0.00000
 BRILLOUIN|   941           0.00087       -0.09375        0.09375        0.00000
 BRILLOUIN|   942           0.00087       -0.09375        0.11458        0.00000
 BRILLOUIN|   943           0.00087       -0.09375        0.13542        0.00000
 BRILLOUIN|   944           0.00087       -0.09375        0.15625        0.00000
 BRILLOUIN|   945           0.00087       -0.09375        0.17708        0.00000
 BRILLOUIN|   946           0.00087       -0.09375        0.19792        0.00000
 BRILLOUIN|   947           0.00087       -0.09375        0.21875        0.00000
 BRILLOUIN|   948           0.00087       -0.09375        0.23958        0.00000
 BRILLOUIN|   949           0.00087       -0.09375        0.26042        0.00000
 BRILLOUIN|   950           0.00087       -0.09375        0.28125        0.00000
 BRILLOUIN|   951           0.00087       -0.09375        0.30208        0.00000
 BRILLOUIN|   952           0.00087       -0.09375        0.32292        0.00000
 BRILLOUIN|   953           0.00087       -0.09375        0.34375        0.00000
 BRILLOUIN|   954           0.00087       -0.09375        0.36458        0.00000
 BRILLOUIN|   955           0.00087       -0.09375        0.38542        0.00000
 BRILLOUIN|   956           0.00087       -0.09375        0.40625        0.00000
 BRILLOUIN|   957           0.00087       -0.09375        0.42708        0.00000
 BRILLOUIN|   958           0.00087       -0.09375        0.44792        0.00000
 BRILLOUIN|   959           0.00087       -0.09375        0.46875        0.00000
 BRILLOUIN|   960           0.00087       -0.09375        0.48958        0.00000
 BRILLOUIN|   961           0.00087       -0.07292       -0.48958        0.00000
 BRILLOUIN|   962           0.00087       -0.07292       -0.46875        0.00000
 BRILLOUIN|   963           0.00087       -0.07292       -0.44792        0.00000
 BRILLOUIN|   964           0.00087       -0.07292       -0.42708        0.00000
 BRILLOUIN|   965           0.00087       -0.07292       -0.40625        0.00000
 BRILLOUIN|   966           0.00087       -0.07292       -0.38542        0.00000
 BRILLOUIN|   967           0.00087       -0.07292       -0.36458        0.00000
 BRILLOUIN|   968           0.00087       -0.07292       -0.34375        0.00000
 BRILLOUIN|   969           0.00087       -0.07292       -0.32292        0.00000
 BRILLOUIN|   970           0.00087       -0.07292       -0.30208        0.00000
 BRILLOUIN|   971           0.00087       -0.07292       -0.28125        0.00000
 BRILLOUIN|   972           0.00087       -0.07292       -0.26042        0.00000
 BRILLOUIN|   973           0.00087       -0.07292       -0.23958        0.00000
 BRILLOUIN|   974           0.00087       -0.07292       -0.21875        0.00000
 BRILLOUIN|   975           0.00087       -0.07292       -0.19792        0.00000
 BRILLOUIN|   976           0.00087       -0.07292       -0.17708        0.00000
 BRILLOUIN|   977           0.00087       -0.07292       -0.15625        0.00000
 BRILLOUIN|   978           0.00087       -0.07292       -0.13542        0.00000
 BRILLOUIN|   979           0.00087       -0.07292       -0.11458        0.00000
 BRILLOUIN|   980           0.00087       -0.07292       -0.09375        0.00000
 BRILLOUIN|   981           0.00087       -0.07292       -0.07292        0.00000
 BRILLOUIN|   982           0.00087       -0.07292       -0.05208        0.00000
 BRILLOUIN|   983           0.00087       -0.07292       -0.03125        0.00000
 BRILLOUIN|   984           0.00087       -0.07292       -0.01042        0.00000
 BRILLOUIN|   985           0.00087       -0.07292        0.01042        0.00000
 BRILLOUIN|   986           0.00087       -0.07292        0.03125        0.00000
 BRILLOUIN|   987           0.00087       -0.07292        0.05208        0.00000
 BRILLOUIN|   988           0.00087       -0.07292        0.07292        0.00000
 BRILLOUIN|   989           0.00087       -0.07292        0.09375        0.00000
 BRILLOUIN|   990           0.00087       -0.07292        0.11458        0.00000
 BRILLOUIN|   991           0.00087       -0.07292        0.13542        0.00000
 BRILLOUIN|   992           0.00087       -0.07292        0.15625        0.00000
 BRILLOUIN|   993           0.00087       -0.07292        0.17708        0.00000
 BRILLOUIN|   994           0.00087       -0.07292        0.19792        0.00000
 BRILLOUIN|   995           0.00087       -0.07292        0.21875        0.00000
 BRILLOUIN|   996           0.00087       -0.07292        0.23958        0.00000
 BRILLOUIN|   997           0.00087       -0.07292        0.26042        0.00000
 BRILLOUIN|   998           0.00087       -0.07292        0.28125        0.00000
 BRILLOUIN|   999           0.00087       -0.07292        0.30208        0.00000
 BRILLOUIN|  1000           0.00087       -0.07292        0.32292        0.00000
 BRILLOUIN|  1001           0.00087       -0.07292        0.34375        0.00000
 BRILLOUIN|  1002           0.00087       -0.07292        0.36458        0.00000
 BRILLOUIN|  1003           0.00087       -0.07292        0.38542        0.00000
 BRILLOUIN|  1004           0.00087       -0.07292        0.40625        0.00000
 BRILLOUIN|  1005           0.00087       -0.07292        0.42708        0.00000
 BRILLOUIN|  1006           0.00087       -0.07292        0.44792        0.00000
 BRILLOUIN|  1007           0.00087       -0.07292        0.46875        0.00000
 BRILLOUIN|  1008           0.00087       -0.07292        0.48958        0.00000
 BRILLOUIN|  1009           0.00087       -0.05208       -0.48958        0.00000
 BRILLOUIN|  1010           0.00087       -0.05208       -0.46875        0.00000
 BRILLOUIN|  1011           0.00087       -0.05208       -0.44792        0.00000
 BRILLOUIN|  1012           0.00087       -0.05208       -0.42708        0.00000
 BRILLOUIN|  1013           0.00087       -0.05208       -0.40625        0.00000
 BRILLOUIN|  1014           0.00087       -0.05208       -0.38542        0.00000
 BRILLOUIN|  1015           0.00087       -0.05208       -0.36458        0.00000
 BRILLOUIN|  1016           0.00087       -0.05208       -0.34375        0.00000
 BRILLOUIN|  1017           0.00087       -0.05208       -0.32292        0.00000
 BRILLOUIN|  1018           0.00087       -0.05208       -0.30208        0.00000
 BRILLOUIN|  1019           0.00087       -0.05208       -0.28125        0.00000
 BRILLOUIN|  1020           0.00087       -0.05208       -0.26042        0.00000
 BRILLOUIN|  1021           0.00087       -0.05208       -0.23958        0.00000
 BRILLOUIN|  1022           0.00087       -0.05208       -0.21875        0.00000
 BRILLOUIN|  1023           0.00087       -0.05208       -0.19792        0.00000
 BRILLOUIN|  1024           0.00087       -0.05208       -0.17708        0.00000
 BRILLOUIN|  1025           0.00087       -0.05208       -0.15625        0.00000
 BRILLOUIN|  1026           0.00087       -0.05208       -0.13542        0.00000
 BRILLOUIN|  1027           0.00087       -0.05208       -0.11458        0.00000
 BRILLOUIN|  1028           0.00087       -0.05208       -0.09375        0.00000
 BRILLOUIN|  1029           0.00087       -0.05208       -0.07292        0.00000
 BRILLOUIN|  1030           0.00087       -0.05208       -0.05208        0.00000
 BRILLOUIN|  1031           0.00087       -0.05208       -0.03125        0.00000
 BRILLOUIN|  1032           0.00087       -0.05208       -0.01042        0.00000
 BRILLOUIN|  1033           0.00087       -0.05208        0.01042        0.00000
 BRILLOUIN|  1034           0.00087       -0.05208        0.03125        0.00000
 BRILLOUIN|  1035           0.00087       -0.05208        0.05208        0.00000
 BRILLOUIN|  1036           0.00087       -0.05208        0.07292        0.00000
 BRILLOUIN|  1037           0.00087       -0.05208        0.09375        0.00000
 BRILLOUIN|  1038           0.00087       -0.05208        0.11458        0.00000
 BRILLOUIN|  1039           0.00087       -0.05208        0.13542        0.00000
 BRILLOUIN|  1040           0.00087       -0.05208        0.15625        0.00000
 BRILLOUIN|  1041           0.00087       -0.05208        0.17708        0.00000
 BRILLOUIN|  1042           0.00087       -0.05208        0.19792        0.00000
 BRILLOUIN|  1043           0.00087       -0.05208        0.21875        0.00000
 BRILLOUIN|  1044           0.00087       -0.05208        0.23958        0.00000
 BRILLOUIN|  1045           0.00087       -0.05208        0.26042        0.00000
 BRILLOUIN|  1046           0.00087       -0.05208        0.28125        0.00000
 BRILLOUIN|  1047           0.00087       -0.05208        0.30208        0.00000
 BRILLOUIN|  1048           0.00087       -0.05208        0.32292        0.00000
 BRILLOUIN|  1049           0.00087       -0.05208        0.34375        0.00000
 BRILLOUIN|  1050           0.00087       -0.05208        0.36458        0.00000
 BRILLOUIN|  1051           0.00087       -0.05208        0.38542        0.00000
 BRILLOUIN|  1052           0.00087       -0.05208        0.40625        0.00000
 BRILLOUIN|  1053           0.00087       -0.05208        0.42708        0.00000
 BRILLOUIN|  1054           0.00087       -0.05208        0.44792        0.00000
 BRILLOUIN|  1055           0.00087       -0.05208        0.46875        0.00000
 BRILLOUIN|  1056           0.00087       -0.05208        0.48958        0.00000
 BRILLOUIN|  1057           0.00087       -0.03125       -0.48958        0.00000
 BRILLOUIN|  1058           0.00087       -0.03125       -0.46875        0.00000
 BRILLOUIN|  1059           0.00087       -0.03125       -0.44792        0.00000
 BRILLOUIN|  1060           0.00087       -0.03125       -0.42708        0.00000
 BRILLOUIN|  1061           0.00087       -0.03125       -0.40625        0.00000
 BRILLOUIN|  1062           0.00087       -0.03125       -0.38542        0.00000
 BRILLOUIN|  1063           0.00087       -0.03125       -0.36458        0.00000
 BRILLOUIN|  1064           0.00087       -0.03125       -0.34375        0.00000
 BRILLOUIN|  1065           0.00087       -0.03125       -0.32292        0.00000
 BRILLOUIN|  1066           0.00087       -0.03125       -0.30208        0.00000
 BRILLOUIN|  1067           0.00087       -0.03125       -0.28125        0.00000
 BRILLOUIN|  1068           0.00087       -0.03125       -0.26042        0.00000
 BRILLOUIN|  1069           0.00087       -0.03125       -0.23958        0.00000
 BRILLOUIN|  1070           0.00087       -0.03125       -0.21875        0.00000
 BRILLOUIN|  1071           0.00087       -0.03125       -0.19792        0.00000
 BRILLOUIN|  1072           0.00087       -0.03125       -0.17708        0.00000
 BRILLOUIN|  1073           0.00087       -0.03125       -0.15625        0.00000
 BRILLOUIN|  1074           0.00087       -0.03125       -0.13542        0.00000
 BRILLOUIN|  1075           0.00087       -0.03125       -0.11458        0.00000
 BRILLOUIN|  1076           0.00087       -0.03125       -0.09375        0.00000
 BRILLOUIN|  1077           0.00087       -0.03125       -0.07292        0.00000
 BRILLOUIN|  1078           0.00087       -0.03125       -0.05208        0.00000
 BRILLOUIN|  1079           0.00087       -0.03125       -0.03125        0.00000
 BRILLOUIN|  1080           0.00087       -0.03125       -0.01042        0.00000
 BRILLOUIN|  1081           0.00087       -0.03125        0.01042        0.00000
 BRILLOUIN|  1082           0.00087       -0.03125        0.03125        0.00000
 BRILLOUIN|  1083           0.00087       -0.03125        0.05208        0.00000
 BRILLOUIN|  1084           0.00087       -0.03125        0.07292        0.00000
 BRILLOUIN|  1085           0.00087       -0.03125        0.09375        0.00000
 BRILLOUIN|  1086           0.00087       -0.03125        0.11458        0.00000
 BRILLOUIN|  1087           0.00087       -0.03125        0.13542        0.00000
 BRILLOUIN|  1088           0.00087       -0.03125        0.15625        0.00000
 BRILLOUIN|  1089           0.00087       -0.03125        0.17708        0.00000
 BRILLOUIN|  1090           0.00087       -0.03125        0.19792        0.00000
 BRILLOUIN|  1091           0.00087       -0.03125        0.21875        0.00000
 BRILLOUIN|  1092           0.00087       -0.03125        0.23958        0.00000
 BRILLOUIN|  1093           0.00087       -0.03125        0.26042        0.00000
 BRILLOUIN|  1094           0.00087       -0.03125        0.28125        0.00000
 BRILLOUIN|  1095           0.00087       -0.03125        0.30208        0.00000
 BRILLOUIN|  1096           0.00087       -0.03125        0.32292        0.00000
 BRILLOUIN|  1097           0.00087       -0.03125        0.34375        0.00000
 BRILLOUIN|  1098           0.00087       -0.03125        0.36458        0.00000
 BRILLOUIN|  1099           0.00087       -0.03125        0.38542        0.00000
 BRILLOUIN|  1100           0.00087       -0.03125        0.40625        0.00000
 BRILLOUIN|  1101           0.00087       -0.03125        0.42708        0.00000
 BRILLOUIN|  1102           0.00087       -0.03125        0.44792        0.00000
 BRILLOUIN|  1103           0.00087       -0.03125        0.46875        0.00000
 BRILLOUIN|  1104           0.00087       -0.03125        0.48958        0.00000
 BRILLOUIN|  1105           0.00087       -0.01042       -0.48958        0.00000
 BRILLOUIN|  1106           0.00087       -0.01042       -0.46875        0.00000
 BRILLOUIN|  1107           0.00087       -0.01042       -0.44792        0.00000
 BRILLOUIN|  1108           0.00087       -0.01042       -0.42708        0.00000
 BRILLOUIN|  1109           0.00087       -0.01042       -0.40625        0.00000
 BRILLOUIN|  1110           0.00087       -0.01042       -0.38542        0.00000
 BRILLOUIN|  1111           0.00087       -0.01042       -0.36458        0.00000
 BRILLOUIN|  1112           0.00087       -0.01042       -0.34375        0.00000
 BRILLOUIN|  1113           0.00087       -0.01042       -0.32292        0.00000
 BRILLOUIN|  1114           0.00087       -0.01042       -0.30208        0.00000
 BRILLOUIN|  1115           0.00087       -0.01042       -0.28125        0.00000
 BRILLOUIN|  1116           0.00087       -0.01042       -0.26042        0.00000
 BRILLOUIN|  1117           0.00087       -0.01042       -0.23958        0.00000
 BRILLOUIN|  1118           0.00087       -0.01042       -0.21875        0.00000
 BRILLOUIN|  1119           0.00087       -0.01042       -0.19792        0.00000
 BRILLOUIN|  1120           0.00087       -0.01042       -0.17708        0.00000
 BRILLOUIN|  1121           0.00087       -0.01042       -0.15625        0.00000
 BRILLOUIN|  1122           0.00087       -0.01042       -0.13542        0.00000
 BRILLOUIN|  1123           0.00087       -0.01042       -0.11458        0.00000
 BRILLOUIN|  1124           0.00087       -0.01042       -0.09375        0.00000
 BRILLOUIN|  1125           0.00087       -0.01042       -0.07292        0.00000
 BRILLOUIN|  1126           0.00087       -0.01042       -0.05208        0.00000
 BRILLOUIN|  1127           0.00087       -0.01042       -0.03125        0.00000
 BRILLOUIN|  1128           0.00087       -0.01042       -0.01042        0.00000
 BRILLOUIN|  1129           0.00087       -0.01042        0.01042        0.00000
 BRILLOUIN|  1130           0.00087       -0.01042        0.03125        0.00000
 BRILLOUIN|  1131           0.00087       -0.01042        0.05208        0.00000
 BRILLOUIN|  1132           0.00087       -0.01042        0.07292        0.00000
 BRILLOUIN|  1133           0.00087       -0.01042        0.09375        0.00000
 BRILLOUIN|  1134           0.00087       -0.01042        0.11458        0.00000
 BRILLOUIN|  1135           0.00087       -0.01042        0.13542        0.00000
 BRILLOUIN|  1136           0.00087       -0.01042        0.15625        0.00000
 BRILLOUIN|  1137           0.00087       -0.01042        0.17708        0.00000
 BRILLOUIN|  1138           0.00087       -0.01042        0.19792        0.00000
 BRILLOUIN|  1139           0.00087       -0.01042        0.21875        0.00000
 BRILLOUIN|  1140           0.00087       -0.01042        0.23958        0.00000
 BRILLOUIN|  1141           0.00087       -0.01042        0.26042        0.00000
 BRILLOUIN|  1142           0.00087       -0.01042        0.28125        0.00000
 BRILLOUIN|  1143           0.00087       -0.01042        0.30208        0.00000
 BRILLOUIN|  1144           0.00087       -0.01042        0.32292        0.00000
 BRILLOUIN|  1145           0.00087       -0.01042        0.34375        0.00000
 BRILLOUIN|  1146           0.00087       -0.01042        0.36458        0.00000
 BRILLOUIN|  1147           0.00087       -0.01042        0.38542        0.00000
 BRILLOUIN|  1148           0.00087       -0.01042        0.40625        0.00000
 BRILLOUIN|  1149           0.00087       -0.01042        0.42708        0.00000
 BRILLOUIN|  1150           0.00087       -0.01042        0.44792        0.00000
 BRILLOUIN|  1151           0.00087       -0.01042        0.46875        0.00000
 BRILLOUIN|  1152           0.00087       -0.01042        0.48958        0.00000
 *******************************************************************************

 *******************************************************************************
 *******************************************************************************
 **                                                                           **
 **     #####                         ##              ##                      **
 **    ##   ##            ##          ##              ##                      **
 **   ##     ##                       ##            ######                    **
 **   ##     ##  ##   ##  ##   #####  ##  ##   ####   ##    #####    #####    **
 **   ##     ##  ##   ##  ##  ##      ## ##   ##      ##   ##   ##  ##   ##   **
 **   ##  ## ##  ##   ##  ##  ##      ####     ###    ##   ######   ######    **
 **    ##  ###   ##   ##  ##  ##      ## ##      ##   ##   ##       ##        **
 **     #######   #####   ##   #####  ##  ##  ####    ##    #####   ##        **
 **           ##                                                    ##        **
 **                                                                           **
 **                                                ... make the atoms dance   **
 **                                                                           **
 **            Copyright (C) by CP2K developers group (2000-2025)             **
 **                      J. Chem. Phys. 152, 194103 (2020)                    **
 **                                                                           **
 *******************************************************************************

 DFT| Spin restricted Kohn-Sham (RKS) calculation                            RKS
 DFT| Multiplicity                                                             1
 DFT| Number of spin states                                                    1
 DFT| Charge                                                                   0
 DFT| Self-interaction correction (SIC)                                       NO
 DFT| Cutoffs: density                                              1.000000E-10
 DFT|          gradient                                             1.000000E-10
 DFT|          tau                                                  1.000000E-10
 DFT|          cutoff_smoothing_range                               0.000000E+00
 DFT| XC density smoothing                                                  NONE
 DFT| XC derivatives                                                          PW

 FUNCTIONAL| PBE:
 FUNCTIONAL| J.P.Perdew, K.Burke, M.Ernzerhof, Phys. Rev. Letter, vol. 77, n 18,
 FUNCTIONAL|  pp. 3865-3868, (1996) {spin unpolarized}                          


 QS| Method:                                                                 GPW
 QS| Density plane wave grid type                        NON-SPHERICAL FULLSPACE
 QS| Number of grid levels:                                                    4
 QS| Density cutoff [a.u.]:                                                500.0
 QS| Multi grid cutoff [a.u.]: 1) grid level                               500.0
 QS|                           2) grid level                               166.7
 QS|                           3) grid level                                55.6
 QS|                           4) grid level                                18.5
 QS| Grid level progression factor:                                          3.0
 QS| Relative density cutoff [a.u.]:                                        50.0
 QS| Interaction thresholds: eps_pgf_orb:                                1.0E-12
 QS|                         eps_filter_matrix:                          0.0E+00
 QS|                         eps_core_charge:                            1.0E-14
 QS|                         eps_rho_gspace:                             1.0E-12
 QS|                         eps_rho_rspace:                             1.0E-12
 QS|                         eps_gvg_rspace:                             1.0E-06
 QS|                         eps_ppl:                                    1.0E-02
 QS|                         eps_ppnl:                                   1.0E-08


 ATOMIC KIND INFORMATION

  1. Atomic kind: B                                     Number of atoms:       1

     Orbital Basis Set                                    DZVP-MOLOPT-PBE-GTH-q3

       Number of orbital shell sets:                                           1
       Number of orbital shells:                                               5
       Number of primitive Cartesian functions:                                5
       Number of Cartesian basis functions:                                   14
       Number of spherical basis functions:                                   13
       Norm type:                                                              2

       Normalised Cartesian orbitals:

                        Set   Shell   Orbital            Exponent    Coefficient

                          1       1    2s                3.575233      -0.251277
                                                         1.347699      -0.198106
                                                         0.614553       0.172878
                                                         0.253523       0.151700
                                                         0.085137       0.035450

                          1       2    3s                3.575233       0.549636
                                                         1.347699       0.196373
                                                         0.614553      -0.255207
                                                         0.253523      -0.051628
                                                         0.085137       0.138907

                          1       3    3px               3.575233      -0.379954
                                                         1.347699      -0.232253
                                                         0.614553      -0.197045
                                                         0.253523      -0.107441
                                                         0.085137      -0.025250
                          1       3    3py               3.575233      -0.379954
                                                         1.347699      -0.232253
                                                         0.614553      -0.197045
                                                         0.253523      -0.107441
                                                         0.085137      -0.025250
                          1       3    3pz               3.575233      -0.379954
                                                         1.347699      -0.232253
                                                         0.614553      -0.197045
                                                         0.253523      -0.107441
                                                         0.085137      -0.025250

                          1       4    4px               3.575233       0.795891
                                                         1.347699       0.510277
                                                         0.614553       0.370808
                                                         0.253523       0.096082
                                                         0.085137      -0.053145
                          1       4    4py               3.575233       0.795891
                                                         1.347699       0.510277
                                                         0.614553       0.370808
                                                         0.253523       0.096082
                                                         0.085137      -0.053145
                          1       4    4pz               3.575233       0.795891
                                                         1.347699       0.510277
                                                         0.614553       0.370808
                                                         0.253523       0.096082
                                                         0.085137      -0.053145

                          1       5    4dx2              3.575233      -0.146757
                                                         1.347699       0.616788
                                                         0.614553       0.145475
                                                         0.253523       0.099150
                                                         0.085137       0.002211
                          1       5    4dxy              3.575233      -0.254191
                                                         1.347699       1.068308
                                                         0.614553       0.251971
                                                         0.253523       0.171733
                                                         0.085137       0.003829
                          1       5    4dxz              3.575233      -0.254191
                                                         1.347699       1.068308
                                                         0.614553       0.251971
                                                         0.253523       0.171733
                                                         0.085137       0.003829
                          1       5    4dy2              3.575233      -0.146757
                                                         1.347699       0.616788
                                                         0.614553       0.145475
                                                         0.253523       0.099150
                                                         0.085137       0.002211
                          1       5    4dyz              3.575233      -0.254191
                                                         1.347699       1.068308
                                                         0.614553       0.251971
                                                         0.253523       0.171733
                                                         0.085137       0.003829
                          1       5    4dz2              3.575233      -0.146757
                                                         1.347699       0.616788
                                                         0.614553       0.145475
                                                         0.253523       0.099150
                                                         0.085137       0.002211

     RI Auxiliary Basis Set             RI_DZVP-MOLOPT-PBE-GTH-q3_N_RI_014_s_p_d

       Number of orbital shell sets:                                           6
       Number of orbital shells:                                               6
       Number of primitive Cartesian functions:                                6
       Number of Cartesian basis functions:                                   15
       Number of spherical basis functions:                                   14
       Norm type:                                                              2

       Normalised Cartesian orbitals:

                        Set   Shell   Orbital            Exponent    Coefficient

                          1       1    1s                0.211791       0.222506

                          2       1    4px               0.230674       0.227870
                          2       1    4py               0.230674       0.227870
                          2       1    4pz               0.230674       0.227870

                          3       1    2s                0.578649       0.472848

                          4       1    6dx2              0.598369       0.670047
                          4       1    6dxy              0.598369       1.160556
                          4       1    6dxz              0.598369       1.160556
                          4       1    6dy2              0.598369       0.670047
                          4       1    6dyz              0.598369       1.160556
                          4       1    6dz2              0.598369       0.670047

                          5       1    5px               0.878456       1.212244
                          5       1    5py               0.878456       1.212244
                          5       1    5pz               0.878456       1.212244

                          6       1    3s                2.825671       1.553285

       Atomic covalent radius [Angstrom]:                                  0.820

       Atomic van der Waals radius [Angstrom]:                             1.920

     GTH Potential information for                                    GTH-PBE-q3

       Description:                       Goedecker-Teter-Hutter pseudopotential
                                           Goedecker et al., PRB 54, 1703 (1996)
                                          Hartwigsen et al., PRB 58, 3641 (1998)
                                                      Krack, TCA 114, 145 (2005)

       Gaussian exponent of the core charge distribution:               2.848129
       Electronic configuration (s p d ...):                               2   1

       Parameters of the local part of the GTH pseudopotential:

                          rloc        C1          C2          C3          C4
                        0.418991   -5.859462    0.903756

       Parameters of the non-local part of the GTH (SOC) pseudopotential:

                   l      r(l)      h(i,j,l)
                                    k(i,j,l)
                   0    0.371320    6.297280
                   1    0.364563    0.000000
                                    0.000855

  2. Atomic kind: N                                     Number of atoms:       1

     Orbital Basis Set                                    DZVP-MOLOPT-PBE-GTH-q5

       Number of orbital shell sets:                                           1
       Number of orbital shells:                                               5
       Number of primitive Cartesian functions:                                5
       Number of Cartesian basis functions:                                   14
       Number of spherical basis functions:                                   13
       Norm type:                                                              2

       Normalised Cartesian orbitals:

                        Set   Shell   Orbital            Exponent    Coefficient

                          1       1    2s                7.677291      -0.433945
                                                         2.819662      -0.225884
                                                         1.091144       0.281004
                                                         0.431009       0.272485
                                                         0.138938       0.015194

                          1       2    3s                7.677291       0.166796
                                                         2.819662       0.071789
                                                         1.091144      -0.075890
                                                         0.431009      -0.026983
                                                         0.138938       0.175604

                          1       3    3px               7.677291      -1.160805
                                                         2.819662      -0.968875
                                                         1.091144      -0.555552
                                                         0.431009      -0.214049
                                                         0.138938      -0.025189
                          1       3    3py               7.677291      -1.160805
                                                         2.819662      -0.968875
                                                         1.091144      -0.555552
                                                         0.431009      -0.214049
                                                         0.138938      -0.025189
                          1       3    3pz               7.677291      -1.160805
                                                         2.819662      -0.968875
                                                         1.091144      -0.555552
                                                         0.431009      -0.214049
                                                         0.138938      -0.025189

                          1       4    4px               7.677291       1.006840
                                                         2.819662       0.803085
                                                         1.091144       0.516640
                                                         0.431009       0.089613
                                                         0.138938      -0.129545
                          1       4    4py               7.677291       1.006840
                                                         2.819662       0.803085
                                                         1.091144       0.516640
                                                         0.431009       0.089613
                                                         0.138938      -0.129545
                          1       4    4pz               7.677291       1.006840
                                                         2.819662       0.803085
                                                         1.091144       0.516640
                                                         0.431009       0.089613
                                                         0.138938      -0.129545

                          1       5    4dx2              7.677291       2.735993
                                                         2.819662       0.863524
                                                         1.091144       0.633376
                                                         0.431009       0.247924
                                                         0.138938       0.003429
                          1       5    4dxy              7.677291       4.738879
                                                         2.819662       1.495667
                                                         1.091144       1.097040
                                                         0.431009       0.429417
                                                         0.138938       0.005939
                          1       5    4dxz              7.677291       4.738879
                                                         2.819662       1.495667
                                                         1.091144       1.097040
                                                         0.431009       0.429417
                                                         0.138938       0.005939
                          1       5    4dy2              7.677291       2.735993
                                                         2.819662       0.863524
                                                         1.091144       0.633376
                                                         0.431009       0.247924
                                                         0.138938       0.003429
                          1       5    4dyz              7.677291       4.738879
                                                         2.819662       1.495667
                                                         1.091144       1.097040
                                                         0.431009       0.429417
                                                         0.138938       0.005939
                          1       5    4dz2              7.677291       2.735993
                                                         2.819662       0.863524
                                                         1.091144       0.633376
                                                         0.431009       0.247924
                                                         0.138938       0.003429

     RI Auxiliary Basis Set             RI_DZVP-MOLOPT-PBE-GTH-q5_N_RI_042_s_p_d

       Number of orbital shell sets:                                          12
       Number of orbital shells:                                              12
       Number of primitive Cartesian functions:                               12
       Number of Cartesian basis functions:                                   51
       Number of spherical basis functions:                                   42
       Norm type:                                                              2

       Normalised Cartesian orbitals:

                        Set   Shell   Orbital            Exponent    Coefficient

                          1       1    1s                0.354343       0.327324

                          2       1    5px               0.416062       0.476308
                          2       1    5py               0.416062       0.476308
                          2       1    5pz               0.416062       0.476308

                          3       1    8dx2              0.467732       0.435417
                          3       1    8dxy              0.467732       0.754164
                          3       1    8dxz              0.467732       0.754164
                          3       1    8dy2              0.467732       0.435417
                          3       1    8dyz              0.467732       0.754164
                          3       1    8dz2              0.467732       0.435417

                          4       1   11fx3              0.637824       0.535219
                          4       1   11fx2y             0.637824       1.196787
                          4       1   11fx2z             0.637824       1.196787
                          4       1   11fxy2             0.637824       1.196787
                          4       1   11fxyz             0.637824       2.072895
                          4       1   11fxz2             0.637824       1.196787
                          4       1   11fy3              0.637824       0.535219
                          4       1   11fy2z             0.637824       1.196787
                          4       1   11fyz2             0.637824       1.196787
                          4       1   11fz3              0.637824       0.535219

                          5       1    2s                1.154397       0.793737

                          6       1    9dx2              1.548748       3.538961
                          6       1    9dxy              1.548748       6.129660
                          6       1    9dxz              1.548748       6.129660
                          6       1    9dy2              1.548748       3.538961
                          6       1    9dyz              1.548748       6.129660
                          6       1    9dz2              1.548748       3.538961

                          7       1    6px               1.568051       2.501152
                          7       1    6py               1.568051       2.501152
                          7       1    6pz               1.568051       2.501152

                          8       1   12fx3              2.629027      12.956669
                          8       1   12fx2y             2.629027      28.971993
                          8       1   12fx2z             2.629027      28.971993
                          8       1   12fxy2             2.629027      28.971993
                          8       1   12fxyz             2.629027      50.180964
                          8       1   12fxz2             2.629027      28.971993
                          8       1   12fy3              2.629027      12.956669
                          8       1   12fy2z             2.629027      28.971993
                          8       1   12fyz2             2.629027      28.971993
                          8       1   12fz3              2.629027      12.956669

                          9       1    3s                3.801419       1.940302

                         10       1   10dx2              9.636321      86.746941
                         10       1   10dxy              9.636321     150.250109
                         10       1   10dxz              9.636321     150.250109
                         10       1   10dy2              9.636321      86.746941
                         10       1   10dyz              9.636321     150.250109
                         10       1   10dz2              9.636321      86.746941

                         11       1    7px              12.640296      33.973214
                         11       1    7py              12.640296      33.973214
                         11       1    7pz              12.640296      33.973214

                         12       1    4s               12.765880       4.813358

       Atomic covalent radius [Angstrom]:                                  0.750

       Atomic van der Waals radius [Angstrom]:                             1.550

     GTH Potential information for                                    GTH-PBE-q5

       Description:                       Goedecker-Teter-Hutter pseudopotential
                                           Goedecker et al., PRB 54, 1703 (1996)
                                          Hartwigsen et al., PRB 58, 3641 (1998)
                                                      Krack, TCA 114, 145 (2005)

       Gaussian exponent of the core charge distribution:               6.208322
       Electronic configuration (s p d ...):                               2   3

       Parameters of the local part of the GTH pseudopotential:

                          rloc        C1          C2          C3          C4
                        0.283791  -12.415226    1.868096

       Parameters of the non-local part of the GTH (SOC) pseudopotential:

                   l      r(l)      h(i,j,l)
                                    k(i,j,l)
                   0    0.255405   13.630263
                   1    0.245495    0.000000
                                    0.004148


 MOLECULE KIND INFORMATION


 All atoms are their own molecule, skipping detailed information


 TOTAL NUMBERS AND MAXIMUM NUMBERS

  Total number of            - Atomic kinds:                                   2
                             - Atoms:                                          2
                             - Shell sets:                                     2
                             - Shells:                                        10
                             - Primitive Cartesian functions:                 10
                             - Cartesian basis functions:                     28
                             - Spherical basis functions:                     26

  Maximum angular momentum of- Orbital basis functions:                        2
                             - Local part of the GTH pseudopotential:          2
                             - Non-local part of the GTH pseudopotential:      1


 MODULE QUICKSTEP: ATOMIC COORDINATES IN ANGSTROM

   Atom Kind Element         X             Y             Z       Z(eff)     Mass
      1    1 B     5      0.000000      1.449303      7.500000   3.0000  10.8110
      2    2 N     7      1.255134      0.724652      7.500000   5.0000  14.0067



 SCF PARAMETERS         Density guess:                                    ATOMIC
                        --------------------------------------------------------
                        max_scf:                                             500
                        max_scf_history:                                       0
                        max_diis:                                              4
                        --------------------------------------------------------
                        eps_scf:                                        1.00E-09
                        eps_scf_history:                                0.00E+00
                        eps_diis:                                       1.00E-01
                        eps_eigval:                                     1.00E-05
                        --------------------------------------------------------
                        level_shift [a.u.]:                             0.000000
                        added MOs                                        22    0
                        --------------------------------------------------------
                        Mixing method:                            BROYDEN_MIXING
                                                charge density mixing in g-space
                        --------------------------------------------------------
                        No outer SCF

 PW_GRID| Information for grid number                                          1
 PW_GRID| Grid distributed over                                   192 processors
 PW_GRID| Real space group dimensions                                    12   16
 PW_GRID| the grid is blocked:                                               YES
 PW_GRID| Cutoff [a.u.]                                                    500.0
 PW_GRID| spherical cutoff:                                                   NO
 PW_GRID|   Bounds   1            -24      23                Points:          48
 PW_GRID|   Bounds   2            -24      23                Points:          48
 PW_GRID|   Bounds   3           -144     143                Points:         288
 PW_GRID| Volume element (a.u.^3)  0.8323E-03     Volume (a.u.^3)       552.2884
 PW_GRID| Grid span                                                    FULLSPACE
 PW_GRID|   Distribution                         Average         Max         Min
 PW_GRID|   G-Vectors                             3456.0        3456        3456
 PW_GRID|   G-Rays                                  72.0          72          72
 PW_GRID|   Real Space Points                     3456.0        3456        3456

 PW_GRID| Information for grid number                                          2
 PW_GRID| Number of the reference grid                                         1
 PW_GRID| Grid distributed over                                   192 processors
 PW_GRID| Real space group dimensions                                    12   16
 PW_GRID| the grid is blocked:                                                NO
 PW_GRID| Cutoff [a.u.]                                                    166.7
 PW_GRID| spherical cutoff:                                                   NO
 PW_GRID|   Bounds   1            -13      13                Points:          27
 PW_GRID|   Bounds   2            -13      13                Points:          27
 PW_GRID|   Bounds   3            -90      89                Points:         180
 PW_GRID| Volume element (a.u.^3)  0.4209E-02     Volume (a.u.^3)       552.2884
 PW_GRID| Grid span                                                    FULLSPACE
 PW_GRID|   Distribution                         Average         Max         Min
 PW_GRID|   G-Vectors                              683.4        1944           0
 PW_GRID|   G-Rays                                  25.3          72           0
 PW_GRID|   Real Space Points                      683.4        1080         360

 PW_GRID| Information for grid number                                          3
 PW_GRID| Number of the reference grid                                         1
 PW_GRID| Grid distributed over                                   192 processors
 PW_GRID| Real space group dimensions                                    12   16
 PW_GRID| the grid is blocked:                                                NO
 PW_GRID| Cutoff [a.u.]                                                     55.6
 PW_GRID| spherical cutoff:                                                   NO
 PW_GRID|   Bounds   1             -7       7                Points:          15
 PW_GRID|   Bounds   2             -7       7                Points:          15
 PW_GRID|   Bounds   3            -48      47                Points:          96
 PW_GRID| Volume element (a.u.^3)  0.2557E-01     Volume (a.u.^3)       552.2884
 PW_GRID| Grid span                                                    FULLSPACE
 PW_GRID|   Distribution                         Average         Max         Min
 PW_GRID|   G-Vectors                              112.5        1080           0
 PW_GRID|   G-Rays                                   7.5          72           0
 PW_GRID|   Real Space Points                      112.5         192           0

 PW_GRID| Information for grid number                                          4
 PW_GRID| Number of the reference grid                                         1
 PW_GRID| Grid distributed over                                   192 processors
 PW_GRID| Real space group dimensions                                    12   16
 PW_GRID| the grid is blocked:                                                NO
 PW_GRID| Cutoff [a.u.]                                                     18.5
 PW_GRID| spherical cutoff:                                                   NO
 PW_GRID|   Bounds   1             -4       4                Points:           9
 PW_GRID|   Bounds   2             -4       4                Points:           9
 PW_GRID|   Bounds   3            -30      29                Points:          60
 PW_GRID| Volume element (a.u.^3)  0.1136         Volume (a.u.^3)       552.2884
 PW_GRID| Grid span                                                    FULLSPACE
 PW_GRID|   Distribution                         Average         Max         Min
 PW_GRID|   G-Vectors                               25.3         648           0
 PW_GRID|   G-Rays                                   2.8          72           0
 PW_GRID|   Real Space Points                       25.3          60           0

 POISSON| Solver                                                        PERIODIC
 POISSON| Periodicity                                                        XYZ

 *** WARNING in pw_env_methods.F:744 :: The selected periodicities in the ***
 *** sections &CELL and &POISSON do not match                             ***


 RS_GRID| Information for grid number                                          1
 RS_GRID|   Bounds   1            -24      23                Points:          48
 RS_GRID|   Bounds   2            -24      23                Points:          48
 RS_GRID|   Bounds   3           -144     143                Points:         288
 RS_GRID| Real space distribution over                                192 groups
 RS_GRID| Real space distribution along direction                              3
 RS_GRID| Border size                                                         54
 RS_GRID|   Distribution                         Average         Max         Min
 RS_GRID|   Planes                                 109.5         110         109

 RS_GRID| Information for grid number                                          2
 RS_GRID|   Bounds   1            -13      13                Points:          27
 RS_GRID|   Bounds   2            -13      13                Points:          27
 RS_GRID|   Bounds   3            -90      89                Points:         180
 RS_GRID| Real space fully replicated
 RS_GRID| Group size                                                           1

 RS_GRID| Information for grid number                                          3
 RS_GRID|   Bounds   1             -7       7                Points:          15
 RS_GRID|   Bounds   2             -7       7                Points:          15
 RS_GRID|   Bounds   3            -48      47                Points:          96
 RS_GRID| Real space fully replicated
 RS_GRID| Group size                                                           1

 RS_GRID| Information for grid number                                          4
 RS_GRID|   Bounds   1             -4       4                Points:           9
 RS_GRID|   Bounds   2             -4       4                Points:           9
 RS_GRID|   Bounds   3            -30      29                Points:          60
 RS_GRID| Real space fully replicated
 RS_GRID| Group size                                                           1

 Number of electrons:                                                          8
 Number of occupied orbitals:                                                  4
 Number of molecular orbitals:                                                26

 Number of orbital functions:                                                 26
 Number of independent orbital functions:                                     26

 Extrapolation method: initial_guess

 Atomic guess: The first density matrix is obtained in terms of atomic orbitals
               and electronic configurations assigned to each atomic kind

 Guess for atomic kind: B

 Electronic structure
    Total number of core electrons                                          2.00
    Total number of valence electrons                                       3.00
    Total number of electrons                                               5.00
    Multiplicity                                                   not specified
    S   [  2.00] 2.00
    P      1.00


 *******************************************************************************
                  Iteration          Convergence                     Energy [au]
 *******************************************************************************
                          1        0.325026E-01                  -2.531431462339
                          2        0.794198E-02                  -2.532232903970
                          3        0.181905E-03                  -2.532303532757
                          4        0.158090E-07                  -2.532303564880

 Energy components [Hartree]           Total Energy ::           -2.532303564880
                                        Band Energy ::           -0.773727808980
                                     Kinetic Energy ::            1.370431419697
                                   Potential Energy ::           -3.902734984577
                                      Virial (-V/T) ::            2.847814876748
                                        Core Energy ::           -3.747357403416
                                          XC Energy ::           -0.780542086598
                                     Coulomb Energy ::            1.995595925134
                       Total Pseudopotential Energy ::           -5.147770522135
                       Local Pseudopotential Energy ::           -5.530216107926
                    Nonlocal Pseudopotential Energy ::            0.382445585791
                                        Confinement ::            0.299816990216

 Orbital energies  State     L     Occupation   Energy[a.u.]          Energy[eV]

                       1     0          2.000      -0.329315           -8.961115

                       1     1          1.000      -0.115098           -3.131975


 Total Electron Density at R=0:                                         0.000062

 Guess for atomic kind: N

 Electronic structure
    Total number of core electrons                                          2.00
    Total number of valence electrons                                       5.00
    Total number of electrons                                               7.00
    Multiplicity                                                   not specified
    S   [  2.00] 2.00
    P      3.00


 *******************************************************************************
                  Iteration          Convergence                     Energy [au]
 *******************************************************************************
                          1        0.322596                      -9.510909083633
                          2        0.246559                      -9.522701400431
                          3        0.169688E-02                  -9.544189244530
                          4        0.170000E-02                  -9.544189241162
                          5        0.170000E-02                  -9.544189241167
                          6        0.170000E-02                  -9.544189241168
                          7        0.727984E-06                  -9.544190158775

 Energy components [Hartree]           Total Energy ::           -9.544190158775
                                        Band Energy ::           -2.076540837543
                                     Kinetic Energy ::            6.789636515854
                                   Potential Energy ::          -16.333826674629
                                      Virial (-V/T) ::            2.405699721405
                                        Core Energy ::          -15.521133941227
                                          XC Energy ::           -2.157281908222
                                     Coulomb Energy ::            8.134225690674
                       Total Pseudopotential Energy ::          -22.348373259271
                       Local Pseudopotential Energy ::          -23.220555347310
                    Nonlocal Pseudopotential Energy ::            0.872182088039
                                        Confinement ::            0.376028021895

 Orbital energies  State     L     Occupation   Energy[a.u.]          Energy[eV]

                       1     0          2.000      -0.667577          -18.165690

                       1     1          3.000      -0.247129           -6.724723


 Total Electron Density at R=0:                                         0.000315
 Re-scaling the density matrix to get the right number of electrons
                  # Electrons              Trace(P)               Scaling factor
                            8                 8.000                        1.000


 SCF WAVEFUNCTION OPTIMIZATION

  Step     Update method      Time    Convergence         Total energy    Change
  ------------------------------------------------------------------------------
     1 NoMix/Diag. 0.10E+00   11.2     1.15760159       -12.9028555379 -1.29E+01
     2 Broy./Diag. 0.10E+00    7.6     0.02433121       -11.0583786298  1.84E+00
     3 Broy./Diag. 0.10E+00    6.0     0.17328473       -11.8105792869 -7.52E-01
     4 Broy./Diag. 0.10E+00    5.9     0.00916784       -12.5913354430 -7.81E-01
     5 Broy./Diag. 0.10E+00    5.5     0.06389585       -12.6897290625 -9.84E-02
     6 Broy./Diag. 0.10E+00    5.5     0.00147664       -12.7649268475 -7.52E-02
     7 Broy./Diag. 0.10E+00    5.4     0.01087260       -12.8029064379 -3.80E-02
     8 Broy./Diag. 0.10E+00    5.3     0.00194993       -12.8444497968 -4.15E-02
     9 Broy./Diag. 0.10E+00    5.1     0.01400943       -12.8501276451 -5.68E-03
    10 Broy./Diag. 0.10E+00    5.1     0.00034053       -12.8713090622 -2.12E-02
    11 Broy./Diag. 0.10E+00    5.3     0.00322911       -12.8616908322  9.62E-03
    12 Broy./Diag. 0.10E+00    5.1     0.00025642       -12.8681046262 -6.41E-03
    13 Broy./Diag. 0.10E+00    5.2     0.00182702       -12.8729973816 -4.89E-03
    14 Broy./Diag. 0.10E+00    5.1     0.00008695       -12.8755293306 -2.53E-03
    15 Broy./Diag. 0.10E+00    5.1     0.00139704       -12.8743756196  1.15E-03
    16 Broy./Diag. 0.10E+00    5.1     0.00044525       -12.8750482945 -6.73E-04
    17 Broy./Diag. 0.10E+00    5.2     0.00079086       -12.8755866985 -5.38E-04
    18 Broy./Diag. 0.10E+00    5.1     0.00053631       -12.8750607761  5.26E-04
    19 Broy./Diag. 0.10E+00    5.2     0.00021412       -12.8749949283  6.58E-05
    20 Broy./Diag. 0.10E+00    4.9     0.00025733       -12.8754760707 -4.81E-04
    21 Broy./Diag. 0.10E+00    5.3     0.00001440       -12.8756528493 -1.77E-04
    22 Broy./Diag. 0.10E+00    5.0     0.00006580       -12.8757767965 -1.24E-04
    23 Broy./Diag. 0.10E+00    5.1     0.00004031       -12.8756903672  8.64E-05
    24 Broy./Diag. 0.10E+00    5.0     0.00004822       -12.8756322927  5.81E-05
    25 Broy./Diag. 0.10E+00    5.2     0.00001137       -12.8756472927 -1.50E-05
    26 Broy./Diag. 0.10E+00    5.0     0.00000827       -12.8756469703  3.22E-07
    27 Broy./Diag. 0.10E+00    5.2     0.00002566       -12.8755970694  4.99E-05
    28 Broy./Diag. 0.10E+00    4.9     0.00004056       -12.8755920020  5.07E-06
    29 Broy./Diag. 0.10E+00    5.2     0.00000430       -12.8756493710 -5.74E-05
    30 Broy./Diag. 0.10E+00    4.9     0.00000688       -12.8756421154  7.26E-06
    31 Broy./Diag. 0.10E+00    5.4     0.00000249       -12.8756315729  1.05E-05
    32 Broy./Diag. 0.10E+00    4.9     0.00000340       -12.8756260551  5.52E-06
    33 Broy./Diag. 0.10E+00    5.3     0.00000323       -12.8756366743 -1.06E-05
    34 Broy./Diag. 0.10E+00    4.9     0.00000418       -12.8756456324 -8.96E-06
    35 Broy./Diag. 0.10E+00    5.3     0.00000399       -12.8756467504 -1.12E-06
    36 Broy./Diag. 0.10E+00    5.0     0.00000454       -12.8756465783  1.72E-07
    37 Broy./Diag. 0.10E+00    5.4     0.00000164       -12.8756475438 -9.65E-07
    38 Broy./Diag. 0.10E+00    5.1     0.00000057       -12.8756465196  1.02E-06
    39 Broy./Diag. 0.10E+00    5.2     0.00000023       -12.8756447800  1.74E-06
    40 Broy./Diag. 0.10E+00    4.9     0.00000010       -12.8756433419  1.44E-06
    41 Broy./Diag. 0.10E+00    5.1     0.00000038       -12.8756427910  5.51E-07
    42 Broy./Diag. 0.10E+00    5.2     0.00000002       -12.8756439354 -1.14E-06
    43 Broy./Diag. 0.10E+00    5.3     0.00000010       -12.8756435964  3.39E-07
    44 Broy./Diag. 0.10E+00    5.0     0.00000006       -12.8756433115  2.85E-07
    45 Broy./Diag. 0.10E+00    5.1     0.00000003       -12.8756434720 -1.61E-07
    46 Broy./Diag. 0.10E+00    4.9     0.00000006       -12.8756436766 -2.05E-07
    47 Broy./Diag. 0.10E+00    5.1     0.00000005       -12.8756437015 -2.50E-08
    48 Broy./Diag. 0.10E+00    4.9     0.00000009       -12.8756436688  3.27E-08
    49 Broy./Diag. 0.10E+00    5.2     0.00000001       -12.8756436663  2.55E-09
    50 Broy./Diag. 0.10E+00    5.0     0.00000004       -12.8756436375  2.88E-08
    51 Broy./Diag. 0.10E+00    5.1     0.00000002       -12.8756435885  4.90E-08
    52 Broy./Diag. 0.10E+00    4.9     0.00000002       -12.8756435537  3.49E-08
    53 Broy./Diag. 0.10E+00    5.1     0.00000002       -12.8756435829 -2.92E-08
    54 Broy./Diag. 0.10E+00    5.0     7.8678E-09       -12.8756436081 -2.52E-08
    55 Broy./Diag. 0.10E+00    5.1     6.5788E-09       -12.8756435552  5.28E-08
    56 Broy./Diag. 0.10E+00    5.2     8.2879E-09       -12.8756435221  3.31E-08
    57 Broy./Diag. 0.10E+00    5.5     2.0059E-09       -12.8756435286 -6.45E-09
    58 Broy./Diag. 0.10E+00    5.1     3.7030E-09       -12.8756435502 -2.16E-08
    59 Broy./Diag. 0.10E+00    5.1     8.8163E-10       -12.8756435541 -3.87E-09

  *** SCF run converged in    59 steps ***


  Electronic density on regular grids:         -8.0000000000        0.0000000000
  Core density on regular grids:                8.0000000000       -0.0000000000
  Total charge density on r-space grids:       -0.0000000000
  Total charge density g-space grids:          -0.0000000000

  Overlap energy of the core charge distribution:               0.00000102720762
  Self energy of the core charge distribution:                -30.91005782344042
  Core Hamiltonian energy:                                      9.51817094801843
  Hartree energy:                                              12.19466359068910
  Exchange-correlation energy:                                 -3.67842129656509

  Total energy:                                               -12.87564355409036

 !-----------------------------------------------------------------------------!
                     Mulliken Population Analysis

 #  Atom  Element  Kind  Atomic population                           Net charge
       1     B        1          2.581024                              0.418976
       2     N        2          5.418976                             -0.418976
 # Total charge                              8.000000                  0.000000

 !-----------------------------------------------------------------------------!

 !-----------------------------------------------------------------------------!
                           Hirshfeld Charges

  #Atom  Element  Kind  Ref Charge     Population                    Net charge
      1       B      1       3.000          2.612                         0.388
      2       N      2       5.000          5.388                        -0.388

  Total Charge                                                            0.000
 !-----------------------------------------------------------------------------!
  
 -------------------------------------------------------------------------------
 -                                                                             -
 -                          BANDSTRUCTURE CALCULATION                          -
 -                                                                             -
 -------------------------------------------------------------------------------
  
 Number of occupied molecular orbitals (MOs) = Number of occupied bands        4
 Number of unoccupied (= virtual) MOs = Number of unoccupied bands            22
 Number of Gaussian basis functions for MOs                                   26
 Number of cells considered in the DFT calculation                           215
 Number of cells for G, χ, W, Σ                                             2209
 Number of special k-points for the bandstructure                              4
 Number of k-points for the bandstructure                                   2452
  
 -------------------------------------------------------------------------------
 -                                                                             -
 -                                GW CALCULATION                               -
 -                                                                             -
 -------------------------------------------------------------------------------
  
 Input: Number of time/freq. points                                           30
 Input: ω_max for fitting Σ(iω) (eV)                                        10.0
 Input: Filter threshold for sparse tensor operations                    1.0E-11
 Input: Apply Hedin shift                                                      F
  
 Number of auxiliary Gaussian basis functions for χ, ε, W                     56
 Cutoff radius for the truncated Coulomb operator in Σ^x:                 51.1 Å
 Cutoff radius for the truncated Coulomb operator in RI metric:            7.0 Å
 Regularization parameter of RI                                          1.0E-02
 Regularization parameter of minimax grids                               1.0E-06
 Lattice sum size for V(k):                                                    3
  
 K-point mesh 1 for χ, ε, W                                          192 192   1
 K-point mesh 2 for χ, ε, W (for k-point extrapolation of W)         384 384   1
 Approximate the k-point extrapolation                                         F
 Radius of atomic orbitals                                                10.7 Å
 Radius of RI functions                                                    6.8 Å
 Number of cells for 3c integrals                                            293
 Number of cell pairs for 3c integrals                                     21053
 
 Input: Available memory per MPI process                                 16.0 GB
 Used memory per MPI process before GW run                                0.5 GB
 Memory of three-center integrals                                         6.4 GB
 Group size for tensor operations                                              1
 Number of cells ΔR                                                         1133
 Min. abs. eigenvalue of RI metric matrix M(k)                           6.2E-03
 Max. abs. eigenvalue of RI metric matrix M(k)                           1.1E+03
 Max. condition number of M(k)                                           9.0E+04
 
 SCF direct band gap (eV)                                                   4.66
 Max. SCF eigval diff. (eV)                                               238.49
 E-Range for minimax grid                                                  51.23
 Number of Padé parameters for analytic continuation:                         16
 
 Computed χ^R(iτ) for time point            1 / 30,      Execution time   62.0 s
 Computed χ^R(iτ) for time point            2 / 30,      Execution time   51.7 s
 Computed χ^R(iτ) for time point            3 / 30,      Execution time   52.0 s
 Computed χ^R(iτ) for time point            4 / 30,      Execution time   51.4 s
 Computed χ^R(iτ) for time point            5 / 30,      Execution time   51.1 s
 Computed χ^R(iτ) for time point            6 / 30,      Execution time   50.1 s
 Computed χ^R(iτ) for time point            7 / 30,      Execution time   49.5 s
 Computed χ^R(iτ) for time point            8 / 30,      Execution time   49.0 s
 Computed χ^R(iτ) for time point            9 / 30,      Execution time   47.5 s
 Computed χ^R(iτ) for time point           10 / 30,      Execution time   46.6 s
 Computed χ^R(iτ) for time point           11 / 30,      Execution time   45.6 s
 Computed χ^R(iτ) for time point           12 / 30,      Execution time   44.7 s
 Computed χ^R(iτ) for time point           13 / 30,      Execution time   44.5 s
 Computed χ^R(iτ) for time point           14 / 30,      Execution time   43.7 s
 Computed χ^R(iτ) for time point           15 / 30,      Execution time   43.4 s
 Computed χ^R(iτ) for time point           16 / 30,      Execution time   41.2 s
 Computed χ^R(iτ) for time point           17 / 30,      Execution time   39.4 s
 Computed χ^R(iτ) for time point           18 / 30,      Execution time   37.3 s
 Computed χ^R(iτ) for time point           19 / 30,      Execution time   35.8 s
 Computed χ^R(iτ) for time point           20 / 30,      Execution time   32.6 s
 Computed χ^R(iτ) for time point           21 / 30,      Execution time   28.1 s
 Computed χ^R(iτ) for time point           22 / 30,      Execution time   22.2 s
 Computed χ^R(iτ) for time point           23 / 30,      Execution time   12.2 s
 Computed χ^R(iτ) for time point           24 / 30,      Execution time   10.0 s
 Computed χ^R(iτ) for time point           25 / 30,      Execution time    9.9 s
 Computed χ^R(iτ) for time point           26 / 30,      Execution time    9.9 s
 Computed χ^R(iτ) for time point           27 / 30,      Execution time   10.0 s
 Computed χ^R(iτ) for time point           28 / 30,      Execution time   10.1 s
 Computed χ^R(iτ) for time point           29 / 30,      Execution time   10.0 s
 Computed χ^R(iτ) for time point           30 / 30,      Execution time    9.9 s
 Computed V_PQ(k),                                       Execution time 1416.0 s
 
 Computed W_PQ(k,iω) for all k and τ,                    Execution time 1241.4 s
 
 Computed Σ^x,                                           Execution time   63.0 s
 
 Computed Σ^c(iτ) for time point            1 / 30,      Execution time   89.4 s
 Computed Σ^c(iτ) for time point            2 / 30,      Execution time   61.6 s
 Computed Σ^c(iτ) for time point            3 / 30,      Execution time   61.6 s
 Computed Σ^c(iτ) for time point            4 / 30,      Execution time   61.1 s
 Computed Σ^c(iτ) for time point            5 / 30,      Execution time   59.8 s
 Computed Σ^c(iτ) for time point            6 / 30,      Execution time   59.1 s
 Computed Σ^c(iτ) for time point            7 / 30,      Execution time   58.6 s
 Computed Σ^c(iτ) for time point            8 / 30,      Execution time   57.4 s
 Computed Σ^c(iτ) for time point            9 / 30,      Execution time   56.8 s
 Computed Σ^c(iτ) for time point           10 / 30,      Execution time   54.8 s
 Computed Σ^c(iτ) for time point           11 / 30,      Execution time   53.7 s
 Computed Σ^c(iτ) for time point           12 / 30,      Execution time   51.4 s
 Computed Σ^c(iτ) for time point           13 / 30,      Execution time   50.6 s
 Computed Σ^c(iτ) for time point           14 / 30,      Execution time   49.1 s
 Computed Σ^c(iτ) for time point           15 / 30,      Execution time   48.2 s
 Computed Σ^c(iτ) for time point           16 / 30,      Execution time   46.2 s
 Computed Σ^c(iτ) for time point           17 / 30,      Execution time   45.2 s
 Computed Σ^c(iτ) for time point           18 / 30,      Execution time   43.4 s
 Computed Σ^c(iτ) for time point           19 / 30,      Execution time   38.9 s
 Computed Σ^c(iτ) for time point           20 / 30,      Execution time   32.1 s
 Computed Σ^c(iτ) for time point           21 / 30,      Execution time   14.7 s
 Computed Σ^c(iτ) for time point           22 / 30,      Execution time   12.5 s
 Computed Σ^c(iτ) for time point           23 / 30,      Execution time   12.0 s
 Computed Σ^c(iτ) for time point           24 / 30,      Execution time   11.9 s
 Computed Σ^c(iτ) for time point           25 / 30,      Execution time   12.1 s
 Computed Σ^c(iτ) for time point           26 / 30,      Execution time   11.8 s
 Computed Σ^c(iτ) for time point           27 / 30,      Execution time   11.9 s
 Computed Σ^c(iτ) for time point           28 / 30,      Execution time   12.1 s
 Computed Σ^c(iτ) for time point           29 / 30,      Execution time   11.9 s
 Computed Σ^c(iτ) for time point           30 / 30,      Execution time   12.4 s

 
 SCF valence band maximum (eV):                                           -3.850
 SCF conduction band minimum (eV):                                         0.806
 SCF indirect band gap (eV):                                               4.655
 SCF direct band gap (eV):                                                 4.655
 
 G0W0 valence band maximum (eV):                                          -4.862
 G0W0 conduction band minimum (eV):                                        2.538
 G0W0 indirect band gap (eV):                                              7.400
 G0W0 direct band gap (eV):                                                7.400
 
 Hartree-Fock with SCF orbitals valence band maximum (eV):                -7.098
 Hartree-Fock with SCF orbitals conduction band minimum (eV)               6.134
 Hartree-Fock with SCF orbitals indirect band gap (eV):                   13.232
 Hartree-Fock with SCF orbitals direct band gap (eV):                     13.274

 ENERGY| Total FORCE_EVAL ( QS ) energy [hartree]            -12.875643551740723

 -------------------------------------------------------------------------------
 -                                                                             -
 -                                DBCSR STATISTICS                             -
 -                                                                             -
 -------------------------------------------------------------------------------
 COUNTER                                    TOTAL       BLAS       SMM       ACC
 flops inhomo. stacks                           0       0.0%      0.0%      0.0%
 flops total                         0.000000E+00       0.0%      0.0%      0.0%
 flops max/rank                      0.000000E+00       0.0%      0.0%      0.0%
 matmuls inhomo. stacks                         0       0.0%      0.0%      0.0%
 matmuls total                                  0       0.0%      0.0%      0.0%
 number of processed stacks                     0       0.0%      0.0%      0.0%
 average stack size                                     0.0       0.0       0.0
 marketing flops                     0.000000E+00
 -------------------------------------------------------------------------------
 -                                                                             -
 -                      DBCSR MESSAGE PASSING PERFORMANCE                      -
 -                                                                             -
 -------------------------------------------------------------------------------
 ROUTINE             CALLS      AVE VOLUME [Bytes]
 MP_Bcast                1                     12.
 MP_Allreduce           19                     21.
 MP_Alltoall      11501785                  99615.
 -------------------------------------------------------------------------------

 -------------------------------------------------------------------------------
 -                                                                             -
 -                                DBM STATISTICS                               -
 -                                                                             -
 -------------------------------------------------------------------------------
    M  x    N  x    K                                          COUNT     PERCENT
   ??  x   ??  x  ???                                      877714014      14.23%
    ?  x    ?  x    ?                                     3069883352      49.78%
  ???  x   ??  x   ??                                     2219120544      35.99%
 -------------------------------------------------------------------------------
 Memory consumption                Number of allocations  Used [MiB]  Size [MiB]
 Host                                          150564058           0           0
 -------------------------------------------------------------------------------

 -------------------------------------------------------------------------------
 -                                                                             -
 -                                GRID STATISTICS                              -
 -                                                                             -
 -------------------------------------------------------------------------------
 LP    KERNEL             BACKEND                              COUNT     PERCENT
 4     integrate general  CPU                                 152086      50.62%
 4     collocate general  CPU                                 147180      48.99%
 0     collocate general  CPU                                    768       0.26%
 0     integrate general  CPU                                    384       0.13%
 -------------------------------------------------------------------------------

 MEMORY| Estimated peak process memory [MiB]                                7041

 -------------------------------------------------------------------------------
 ----                             MULTIGRID INFO                            ----
 -------------------------------------------------------------------------------
 count for grid        1:         837027          cutoff [a.u.]          500.00
 count for grid        2:         646166          cutoff [a.u.]          166.67
 count for grid        3:         362744          cutoff [a.u.]           55.56
 count for grid        4:         129808          cutoff [a.u.]           18.52
 total gridlevel count  :        1975745

 -------------------------------------------------------------------------------
 -                                                                             -
 -                         MESSAGE PASSING PERFORMANCE                         -
 -                                                                             -
 -------------------------------------------------------------------------------

 ROUTINE             CALLS      AVE VOLUME [Bytes]
 MP_Group         23786375
 MP_Bcast         17077644                   1038.
 MP_Allreduce     43684673                   2117.
 MP_Sync          41215024
 MP_Alltoall      18850828                   1213.
 MP_SendRecv         34380                   3552.
 MP_ISendRecv        35526                   3552.
 MP_Wait           3459099
 MP_comm_split    14627302
 MP_ISend         85448750                   3073.
 MP_IRecv          8491004                   3018.
 -------------------------------------------------------------------------------


 -------------------------------------------------------------------------------
 -                                                                             -
 -                           R E F E R E N C E S                               -
 -                                                                             -
 -------------------------------------------------------------------------------
 
 CP2K version 2025.2, the CP2K developers group (2025).
 CP2K is freely available from https://www.cp2k.org/ .
 
 M. Graml, K. Zollner, D. Hernangómez-Pérez, P. E. Faria Junior, J. Wilhelm.
 J. Chem. Theory Comput. 20, 2202-2208 (2024).
 Low-scaling GW algorithm applied to twisted transition-metal dichalcogenide 
 heterobilayers.
 https://doi.org/10.1021/acs.jctc.3c01230

 T. D. Kuehne, M. Iannuzzi, M. Del Ben, V. V. Rybkin, P. Seewald, F. Stein, T. 
 Laino, R. Z. Khaliullin, O. Schuett, F. Schiffmann, D. Golze, J. Wilhelm, S. 
 Chulkov, M. H. Bani-Hashemian, V. Weber, U. Borstnik, M. Taillefumier, A. S. 
 Jakobovits, A. Lazzaro, H. Pabst, T. Mueller, R. Schade, M. Guidon, S. 
 Andermatt, N. Holmberg, G. K. Schenter, A. Hehn, A. Bussy, F. Belleflamme, G. 
 Tabacchi, A. Gloess, M. Lass, I. Bethune, C. J. Mundy, C. Plessl, M. Watkins, 
 J. VandeVondele, M. Krack, J. Hutter.
 J. Chem. Phys. 152, 194103 (2020).
 CP2K: An electronic structure and molecular dynamics software package - 
 Quickstep: Efficient and accurate electronic structure calculations.
 https://doi.org/10.1063/5.0007045

 A. Togo, I. Tanaka.
 arXiv, 1808.01590 (2018).
 Spglib : a software library for crystal symmetry search.

 O. Schuett, P. Messmer, J. Hutter, J. VandeVondele.
 Electronic Structure Calculations on Graphics Processing Units, 173-190 (2016).
 GPU-Accelerated Sparse Matrix-Matrix Multiplication for Linear Scaling Density 
 Functional Theory.
 https://doi.org/10.1002/9781118670712.ch8

 A. Heinecke, G. Henry, M. Hutchinson, H. Pabst.
 Proceedings of Intl. Supercomputing Conference, 981-991 (2016).
 LIBXSMM: Accelerating Small Matrix Multiplications by Runtime Code Generation.
 https://doi.org/10.1109/SC.2016.83

 J. Hutter, M. Iannuzzi, F. Schiffmann, J. VandeVondele.
 WIREs Comput Mol Sci. 4, 15-25 (2014).
 CP2K: atomistic simulations of condensed matter systems.
 https://doi.org/10.1002/wcms.1159

 U. Borstnik, J. VandeVondele, V. Weber, J. Hutter.
 Parallel Comput. 40, 47-58 (2014).
 Sparse matrix multiplication: The distributed block-compressed sparse row 
 library.
 https://doi.org/10.1016/j.parco.2014.03.012

 A. Marek, V. Blum, R. Johanni, V. Havu, B. Lang, T. Auckenthaler, A. Heinecke, 
 H. Bungartz, H. Lederer.
 J. Phys. Condens. Matter 26, 213201 (2014).
 The ELPA library: scalable parallel eigenvalue solutions for electronic 
 structure theory and computational science.
 https://doi.org/10.1088/0953-8984/26/21/213201

 J. VandeVondele, J. Hutter.
 J. Chem. Phys. 127, 114105 (2007).
 Gaussian basis sets for accurate calculations on molecular systems in gas and 
 condensed phases.
 https://doi.org/10.1063/1.2770708

 J. VandeVondele, M. Krack, F. Mohamed, M. Parrinello, T. Chassaing, J. Hutter.
 Comput. Phys. Commun. 167, 103-128 (2005).
 QUICKSTEP: Fast and accurate density functional calculations using a mixed 
 Gaussian and plane waves approach.
 https://doi.org/10.1016/j.cpc.2004.12.014

 M. Krack.
 Theor. Chem. Acc. 114, 145-152 (2005).
 Pseudopotentials for H to Kr optimized for gradient-corrected 
 exchange-correlation functionals.
 https://doi.org/10.1007/s00214-005-0655-y

 M. Frigo, S. G. Johnson.
 Proc. IEEE 93, 216-231 (2005).
 The design and implementation of FFTW3.
 https://doi.org/10.1109/JPROC.2004.840301

 C. Hartwigsen, S. Goedecker, J. Hutter.
 Phys. Rev. B 58, 3641-3662 (1998).
 Relativistic separable dual-space Gaussian pseudopotentials from H to Rn.
 https://doi.org/10.1103/PhysRevB.58.3641

 G. Lippert, J. Hutter, M. Parrinello.
 Mol. Phys. 92, 477-487 (1997).
 A hybrid Gaussian and plane wave density functional scheme.
 https://doi.org/10.1080/002689797170220

 S. Goedecker, M. Teter, J. Hutter.
 Phys. Rev. B 54, 1703-1710 (1996).
 Separable dual-space Gaussian pseudopotentials.
 https://doi.org/10.1103/PhysRevB.54.1703

 J. P. Perdew, K. Burke, M. Ernzerhof.
 Phys. Rev. Lett. 77, 3865-3868 (1996).
 Generalized gradient approximation made simple.
 https://doi.org/10.1103/PhysRevLett.77.3865


 -------------------------------------------------------------------------------
 -                                                                             -
 -                                T I M I N G                                  -
 -                                                                             -
 -------------------------------------------------------------------------------
 SUBROUTINE                       CALLS  ASD         SELF TIME        TOTAL TIME
                                MAXIMUM       AVERAGE  MAXIMUM  AVERAGE  MAXIMUM
 CP2K                                 1  1.0    0.042    0.049 5752.494 5752.779
 qs_energies                          1  2.0    0.006    0.007 5751.124 5751.410
 qs_energies_properties               1  3.0    0.000    0.000 5436.494 5436.763
 post_scf_bandstructure               1  4.0    0.001    0.001 5436.494 5436.763
 gw                                   1  5.0    0.002    0.003 5399.392 5399.660
 gw_calc_small_cell_full_kp           1  6.0    0.003    0.004 5373.913 5374.177
 compute_W_real_space                 1  7.0    1.757    2.107 2657.683 2657.868
 compute_Minv_and_Vsqrt               1  8.0    0.013    0.021 1415.978 1416.210
 build_2c_coulomb_matrix_kp_sma       2  9.0    2.737    9.783 1410.636 1410.722
 compute_Sigma_c                      1  7.0    0.001    0.002 1202.836 1202.935
 dbt_total                      9985103  9.6    8.295    9.667 1057.505 1193.890
 build_2c_coulomb_matrix_kp_sma 1474560 10.0 1053.042 1176.442 1053.042 1176.442
 dbt_contract                   4122728 10.4   14.553   16.742  950.644 1068.041
 compute_chi                          1  7.0    0.027    0.052 1067.502 1067.650
 mp_sum_dm3                        1054  9.0 1020.471 1020.538 1020.471 1020.538
 fm_to_local_array                  934  8.1   14.411   15.026 1017.663 1017.972
 dbt_tas_multiply               4955916 12.9    2.420    2.846  849.039  964.066
 dbt_tas_total                  4955916 13.9   79.351   91.753  847.572  962.470
 G_occ_vir                          121  8.0    0.378    0.431  710.548  711.525
 mp_sync                        ******* 12.4  425.251  568.635  425.251  568.635
 dbcsr_complete_redistribute    1035705  9.7   11.616   28.680  463.260  551.778
 parallel_gemm_cfm               592640  9.0    0.188    0.245  490.530  502.140
 parallel_gemm_cfm_cosma         592640 10.0  490.341  501.931  490.341  501.931
 contract_to_Sigma                  134  8.0   16.044   17.419  422.412  478.583
 dbt_tas_estimate_result_nze    2477958 13.4   46.632   54.441  391.460  445.291
 mp_alltoall_i22                1886075 10.1  310.492  414.992  310.492  414.992
 fm_to_local_tensor              335768  9.0    2.227    2.683  385.078  385.112
 compute_QP_energies                  1  7.0    0.080    0.127  382.346  382.387
 trafo_to_k_and_nn               149572  8.0    0.281    0.341  382.075  382.107
 copy_dbcsr_to_fm                563786  8.1    1.470    1.696  338.757  344.531
 contract_W                          70  8.0    5.292    5.904  311.240  335.014
 scf_env_do_scf                       1  3.0    0.001    0.001  313.724  313.740
 scf_env_do_scf_inner_loop           59  4.0    0.006    0.008  313.724  313.739
 qs_scf_new_mos_kp                   59  5.0    0.000    0.001  309.047  309.125
 do_general_diag_kp                  59  6.0    0.388    0.415  309.047  309.125
 contract_M_occ_vir_to_chi           74  8.0   21.874   25.970  195.789  300.908
 copy_fm_to_dbcsr                471919  9.4    0.519    0.569  200.834  297.404
 reshape_mm_small               4955916 14.9  164.686  188.820  264.621  297.039
 contract_to_Sigma_3c_x_G        979403  9.0    0.795    0.873  250.167  276.803
 global_matrix_to_local_matrix   335768 10.0    2.337    4.867  187.639  261.695
 G_times_3c                       17320  8.0    7.351    8.144  238.222  250.014
 send_data                       335768 11.0    0.117    0.132  116.024  198.150
 communicate_buffer              335768 12.0    0.835   24.946  115.907  198.018
 contract_to_Sigma_contract       16361  9.0    6.913    7.487  149.484  190.581
 mp_waitall_1                   3019561 11.3  114.933  184.007  114.933  184.007
 mp_cart_sub                    1127651 10.1  182.309  182.435  182.309  182.435
 fm_add_ikp_to_rs                278784  9.0  121.708  128.090  173.084  179.587
 mp_sum_dm                      1474618 10.0  146.198  165.883  146.198  165.883
 local_dbt_to_global_fm              91  8.0    0.180    0.188  159.196  159.206
 dbt_tas_create_split           ******* 15.9    4.368    5.063  130.313  148.794
 dbt_tas_dbm                    4955916 14.9    2.070    2.333  122.172  145.223
 dbt_tas_create_split_rows_or_c ******* 16.9   16.971   19.480  125.946  143.811
 dbm_multiply                   4955916 16.9  117.989  140.492  117.989  140.492
 reshape_mm_compatible          4955916 14.9   18.941   21.604  119.522  134.119
 dbcsr_desymmetrize_deep         850370  8.4    5.472    6.290  120.970  130.482
 dbt_copy                       6245735 10.9   13.572   15.778  110.473  130.327
 add_ikp_to_rs                  ******* -3.3  118.682  126.165  118.682  126.165
 fm_trafo_rs_to_ikp              149572  9.0   78.256   96.869  105.853  125.340
 dbt_tas_distribution_new       ******* 15.6   48.187   52.148   99.016  108.423
 add_rs_to_ikp                  ******* -1.8   91.221  100.668   91.221  100.668
 mp_cart_create                 ******* 16.4   85.067   91.048   92.206   98.901
 mult_W_with_Minv                    30  8.0    0.158    0.201   93.584   93.589
 add_V_L                         737280 10.0    1.583   92.734    1.583   92.734
 get_V_tr_R                          34  9.0    0.107    0.119   91.259   91.277
 change_split                   6667300 15.4    6.476    7.602   74.805   87.736
 trafo_rs_to_ikp                  16104  8.1    8.165    8.596   71.789   81.872
 add_ikp_to_all_rs                14772  8.0    8.316    9.013   75.637   80.464
 dbt_reshape                    4064279 11.8   49.556   58.930   66.433   79.781
 cp_fm_start_copy_general        407808  7.3    1.167    2.437   69.778   70.793
 get_t_3c_int                   2920717  9.3    4.015    4.262   60.065   69.895
 dbt_tas_reshape                5722490 15.5   13.090   14.721   59.858   64.335
 fm_MWM_R_t_to_local_tensor_W_R      30  8.0    0.021    0.025   63.588   63.591
 compute_Sigma_x                      1  7.0    0.003    0.004   63.545   63.589
 dbt_tas_mm_2                   1852600 16.0    0.700    1.083   40.938   62.817
 dbt_tas_replicate              4955916 14.9   25.737   27.255   58.229   62.428
 mp_isend_dv                    ******* 10.8    1.225   60.423    1.225   60.423
 dbt_remap                       445708 11.0   24.367   26.561   54.559   58.974
 dbt_tas_mm_3T                  2175644 16.1    0.649    0.714   50.767   58.386
 local_dbt_to_global_mat         201019  9.0    0.317    0.363   41.354   52.724
 mp_sum_i                       4525117 15.7   50.335   52.435   50.335   52.435
 send_sizes_1                    335768 11.0    0.109    0.152   49.975   52.099
 kpoint_density_transform            59  7.0    0.118    0.136   51.476   51.494
 mp_allgather_i                  815616  8.3   45.016   48.983   45.016   48.983
 add_R                          *******  9.3   28.099   31.776   40.345   45.026
 mp_comm_dup                    ******* 18.4   33.607   38.889   37.608   43.441
 mp_comm_split_direct           ******* 17.9   27.159   31.233   29.399   33.725
 dbt_permute_index              ******* 12.2   24.254   28.679   26.989   31.860
 convert_to_new_pgrid           ******* 14.9   11.340   13.185   26.153   30.638
 mp_comm_free                   ******* 15.4   26.131   29.901   26.131   29.901
 mp_alltoall_d11v               5658347 10.6    8.236   29.576    8.236   29.576
 dbt_tas_mm_1N                  1131558 15.5    0.337    0.386   28.100   29.567
 local_matrix_to_global_matrix   201019 10.0    0.221    0.232   17.636   28.908
 create_and_init_bs_env               1  5.0    0.000    0.000   28.518   28.520
 compute_cfm_mo_coeff_kp_and_ei       1  6.0    0.003    0.005   28.516   28.517
 dbt_tas_reserve_blocks_index   ******* 15.7    6.013    6.981   23.350   26.102
 create_and_init_bs_env_for_gw        1  6.0    0.004    0.004   25.477   25.499
 mp_sum_dv                       164342  8.9   21.054   25.041   21.054   25.041
 dbt_align_index                7433874 11.4    4.023    4.648   21.300   24.532
 dbm_reserve_blocks             ******* 16.6   21.764   24.238   21.764   24.238
 is_cell_in_index_to_cell       *******  9.6   22.350   24.205   22.350   24.205
 reshape_mm_template             891416 15.5   16.899   18.117   22.347   24.060
 dbt_distribution_new_expert    1562962 12.1    4.016    4.583   21.757   24.009
 dbt_tas_create_new             ******* 15.2   19.524   21.959   19.524   21.959
 mp_alltoall_i11v               3957485 10.5   15.332   21.888   15.332   21.888
 get_data                        335768 11.0    4.397   21.433    4.659   21.754
 mp_alltoall_i                  ******* 15.2   19.377   21.296   19.377   21.296
 dbt_tas_reshape_buffer_obtain  5722490 16.5   11.473   12.434   19.559   21.094
 rskp_transform                  143292  7.1    0.171   20.953    0.171   20.953
 dbt_destroy                    ******* 10.5   17.411   18.454   18.943   20.025
 mp_bcast_im                     815616  8.3   16.507   19.997   16.507   19.997
 cp_cfm_geeig_canon                2452  7.0    0.005    0.005   19.095   19.149
 dbcsr_finalize                 4091094 11.1    3.253    4.296   13.873   18.765
 cp_cfm_heevd                      5258  8.0    0.002    0.002   18.001   18.088
 cp_cfm_heevd_base                 5258  9.0   18.000   18.086   18.000   18.086
 dbm_copy                       9911832 15.9   14.813   17.753   14.813   17.753
 dbt_tas_reshape_buffer_fill    5722490 16.5   16.522   17.557   16.522   17.557
 dbt_tas_merge                  1852600 15.0    7.922   12.351   11.129   17.423
 dbt_tas_copy                   2371076 12.3    9.584   11.639   14.058   17.386
 dbt_create_matrix               335768 10.0    0.932    1.063   14.982   16.482
 destroy_t_2d                        62  8.0    4.424    5.516   15.003   16.363
 dbt_tas_reserve_blocks_templat 6848449 14.1    5.552    6.653   13.632   15.670
 get_Minv_Vtr_Minv_R                  1  8.0    0.008    0.009   15.050   15.058
 dbt_tas_mp_comm                2861245 13.0    2.234    2.500   12.296   14.654
 mp_cart_get                    ******* 16.0   11.358   13.526   11.358   13.526
 dbt_create_3c_R1_R2                 62  8.0    3.382    3.581   12.849   13.379
 rsmat_to_kp                       7356  7.3    0.030    0.034   13.235   13.296
 mp_comm_size                   ******* 16.2   11.254   13.005   11.254   13.005
 dbt_create_new                  781481 11.6    2.478    2.630   11.962   12.980
 send_sizes_2                    335768 11.0    0.104    0.111   10.994   12.319
 power                            30612  8.0    0.995    1.389   11.440   11.947
 comm_data                       201019 11.0    0.190    1.154    3.722   11.577
 dbt_reserve_blocks_index       4935509 13.6    2.050    2.420    9.764   11.459
 dbt_reserve_blocks_index_array 4556670 12.8    1.526    1.824    9.389   11.385
 dbcsr_filter_anytype           1498208 11.0    1.784    1.957    6.725   11.266
 diag_complex                     30612  9.0   10.445   11.007   10.445   11.007
 dbt_create_template            5642800  9.0   10.207   10.641   10.207   10.641
 mp_waitall_2                    402038 12.0    3.353    9.983    3.353    9.983
 mp_comm_rank                   ******* 16.2    8.430    9.861    8.430    9.861
 transform_dmat                   67968  8.0    0.076    9.789    0.076    9.789
 dbt_communicate_buffer         4064279 12.8    6.947    9.772    6.947    9.772
 dbt_copy_nocomm                 579530 11.0    4.128    7.164    5.551    9.601
 dbcsr_merge_all                1578641 11.8    5.439    7.037    6.951    9.257
 dos_pdos_ldos                        1  5.0    0.003    0.003    8.582    8.586
 dbm_add                        4955916 14.9    7.153    8.508    7.153    8.508
 compute_3c_integrals                 1  7.0    0.060    0.063    8.329    8.330
 set_blocks                      201019 11.0    1.777    3.936    3.726    8.218
 trafo_V_xc_R_to_kp                   1  7.0    0.005    0.006    8.085    8.097
 compute_proj_mo_on_kind           2452  6.0    0.013    0.015    8.070    8.078
 build_3c_integrals                   1  8.0    5.484    5.925    7.480    8.051
 dbm_filter                     7647649 14.8    6.478    7.974    6.478    7.974
 mp_bcast_iv                    1631724  8.3    6.662    7.892    6.662    7.892
 dbt_pgrid_create_expert        1562965 13.1    0.901    1.008    6.217    6.987
 comm_size                       201019 11.0    0.098    0.106    6.169    6.832
 mp_isend_im2                   ******* 12.9    0.074    5.418    0.074    5.418
 dbt_nd_mp_comm                  781476 11.6    0.628    0.680    4.612    5.337
 heuristic_RI_regularization          1  7.0    0.001    0.001    5.035    5.037
 dbcsr_create_new               3313996 10.1    3.668    4.093    4.531    5.018
 dbt_create_2c_R                     98  8.0    2.956    4.276    3.415    4.757
 dbm_scale                      6358688 14.4    3.670    4.493    3.670    4.493
 dbcsr_iterator_start           8822063 11.0    3.385    3.512    4.153    4.387
 dbt_tas_reshape_communicate_bu 5722490 16.5    1.798    2.029    3.898    4.359
 copy_fm_to_dbcsr_bc             471919 10.4    1.153    1.425    3.519    4.115
 dbt_tas_reshape_get_coord      5722490 16.5    3.509    4.010    3.509    4.010
 dbt_tas_communicate_buffer     ******* 17.2    3.029    3.417    3.029    3.417
 mp_sum_l                       ******* 15.0    2.662    3.163    2.662    3.163
 dbcsr_iterator_stop            8822063 11.0    2.343    2.460    2.958    3.103
 dbcsr_work_create              2429011 10.4    1.607    2.154    2.290    3.078
 fill_buffer                     201019 11.0    2.406    2.874    2.563    3.039
 dbcsr_data_release             ******* 11.6    2.419    2.945    2.419    2.945
 setup_parallelization_Delta_R        1  7.0    0.000    0.000    2.835    2.836
 compute_n_tensor_ops_Delta_R         1  8.0    0.806    1.258    2.823    2.823
 dbt_copy_matrix_to_tensor       335768 10.0    0.692    0.858    2.529    2.814
 reserve_blocks                  335768 11.0    0.454    0.558    2.185    2.805
 dbt_tas_reshape_alltoall       5722490 16.5    1.578    1.878    2.412    2.765
 dbcsr_work_destroy_all         2429011 11.3    1.566    2.012    2.069    2.659
 dbcsr_destroy                  3086962  9.7    1.425    1.503    2.442    2.638
 qs_ks_update_qs_env                 59  5.0    0.000    0.000    1.896    2.569
 dbt_reserve_blocks_template     579530 12.0    0.395    0.731    1.422    2.437
 qs_ks_build_kohn_sham_matrix        62  7.0    0.010    0.012    1.654    2.361
 dbcsr_data_new                 ******* 11.0    1.812    2.318    1.812    2.318
 mp_waitany                       37500 11.5    2.110    2.269    2.110    2.269
 hybrid_alltoall_any             850370  9.4    1.199    1.268    1.914    2.227
 rebuild_ks_matrix                   59  6.0    0.000    0.000    1.550    2.222
 mp_sum_iv                           24  6.1    1.048    2.161    1.048    2.161
 sum_up_and_integrate                62  8.0    0.001    0.002    1.374    2.082
 integrate_v_rspace                  62  9.0    0.001    0.001    1.373    2.081
 qs_rho_update_rho_low               60  5.0    0.000    0.000    1.946    1.950
 calculate_rho_elec                  60  6.0    0.001    0.001    1.946    1.950
 transfer_rs2pw                     242  8.0    0.001    0.002    1.834    1.913
 density_rs2pw                       60  7.0    0.001    0.002    1.825    1.901
 dbcsr_reserve_blocks           1301402 12.3    0.781    1.552    0.981    1.865
 transfer_rs2pw_500                  62  9.0    0.048    0.063    1.749    1.831
 dbt_tas_replicate_communicate_ 3265074 15.9    1.012    1.089    1.660    1.764
 build_2c_integrals                  34 10.0    0.049    0.655    0.141    1.761
 dbt_reserve_blocks_matrix_to_t  335768 11.0    0.442    0.511    1.543    1.705
 dbt_distribution_destroy       1562962 12.1    1.176    1.283    1.548    1.689
 mp_bcast_i                     ******* 17.9    1.379    1.650    1.379    1.650
 get_coord                       201019 11.0    0.675    0.723    1.235    1.631
 dbcsr_set                      3361800 10.6    0.913    0.987    1.313    1.582
 dbcsr_reserve_all_blocks        672938 11.6    0.286    0.329    0.813    1.466
 mp_dims_create                 ******* 14.2    1.198    1.464    1.198    1.464
 dbt_tas_replicate_alltoall     3265074 15.9    0.912    1.032    1.322    1.460
 copy_dbcsr_to_fm_bc             563786  9.1    0.676    0.769    1.246    1.376
 potential_pw2rs                     62 10.0    0.001    0.001    1.309    1.329
 quick_finalize                  850370 10.4    0.561    0.749    0.964    1.323
 cp_cfm_gemm                       7356  8.0    1.143    1.250    1.143    1.250
 dbt_tas_merge_alltoall         1852600 16.0    0.440    0.802    0.677    1.242
 alloc_block_3c                       1  9.0    0.067    0.070    1.133    1.167
 dbt_tas_merge_communicate_buff 1852600 16.0    0.453    0.675    0.735    1.152
 dbcsr_copy                      363185 10.5    0.301    0.393    0.870    1.140
 transfer_pw2rs                     249 11.0    0.000    0.000    1.118    1.137
 dbt_buffer_get_index           ******* 16.8    0.936    1.096    0.936    1.096
 fill_mat_local                  335768 11.0    0.568    0.754    0.801    1.028
 dbt_copy_tensor_to_matrix       201019 10.0    0.275    0.296    0.964    1.020
 mp_max_i                       8245895 11.4    0.825    0.974    0.825    0.974
 mp_cart_rank                   6530800 15.9    0.805    0.964    0.805    0.964
 dbcsr_iterator_seek            8822063 12.0    0.768    0.945    0.768    0.945
 create_qs_kind_set                   1  2.0    0.000    0.000    0.927    0.933
 read_qs_kind                         2  3.0    0.448    0.502    0.927    0.933
 fft_wrap_pw1pw2                   1096 10.1    0.001    0.002    0.904    0.917
 cp_dbcsr_alloc_block_from_nbl    91677 10.4    0.074    0.647    0.105    0.819
 transfer_pw2rs_500                  63 12.0    0.044    0.066    0.812    0.813
 abc_contract_xsmm               179838  9.0    0.575    0.792    0.575    0.792
 write_kpoints_restart               59  5.0    0.001    0.004    0.786    0.786
 destroy_t_1d                        98  8.0    0.205    0.238    0.686    0.761
 grid_integrate_task_list            62 10.0    0.051    0.746    0.051    0.746
 tree_to_linear_d               1216811 12.7    0.585    0.736    0.585    0.736
 rs_gather_matrices                  62 10.0    0.000    0.010    0.012    0.719
 get_sizes                       335768 11.0    0.387    0.447    0.616    0.689
 dbcsr_copy_into_existing        136151 10.0    0.226    0.395    0.446    0.625
 grid_collocate_task_list            60  7.0    0.106    0.620    0.106    0.620
 dbcsr_make_index_exist         3313996 11.1    0.535    0.595    0.535    0.595
 dbcsr_zero                     3361800 11.6    0.400    0.594    0.400    0.594
 qs_energies_init_hamiltonians        1  3.0    0.003    0.003    0.588    0.589
 -------------------------------------------------------------------------------

 The number of warnings for this run is : 1
 
 -------------------------------------------------------------------------------
  **** **** ******  **  PROGRAM ENDED AT                 2025-10-14 13:22:42.235
 ***** ** ***  *** **   PROGRAM RAN ON                                    cn1305
 **    ****   ******    PROGRAM RAN BY                                  metdyn02
 ***** **    ** ** **   PROGRAM PROCESS ID                               2390524
  **** **  *******  **  PROGRAM STOPPED IN /scratch/hpc-prf-metdyn/metdyn02_Remi
                                           /03_hBN/DZVP-MOLOPT/new-RI
