 DBCSR| CPU Multiplication driver                                           XSMM (U)
 DBCSR| Multrec recursion limit                                              512 (U)
 DBCSR| Multiplication stack size                                           1000 (D)
 DBCSR| Maximum elements for images                                    UNLIMITED (U)
 DBCSR| Multiplicative factor virtual images                                   1 (U)
 DBCSR| Use multiplication densification                                       T (D)
 DBCSR| Multiplication size stacks                                             3 (U)
 DBCSR| Use memory pool for CPU allocation                                     F (U)
 DBCSR| Number of 3D layers                                               SINGLE (U)
 DBCSR| Use MPI memory allocation                                              F (U)
 DBCSR| Use RMA algorithm                                                      F (U)
 DBCSR| Use Communication thread                                               T (U)
 DBCSR| Communication thread load                                             75 (D)
 DBCSR| MPI: My process id                                                     0
 DBCSR| MPI: Number of processes                                             128
 DBCSR| OMP: Current number of threads                                         4
 DBCSR| OMP: Max number of threads                                             4
 DBCSR| Split modifier for TAS multiplication algorithm                  1.0E+00 (U)


  **** **** ******  **  PROGRAM STARTED AT               2025-10-03 17:08:03.107
 ***** ** ***  *** **   PROGRAM STARTED ON                             n2lcn0129
 **    ****   ******    PROGRAM STARTED BY                              metdyn02
 ***** **    ** ** **   PROGRAM PROCESS ID                               3675691
  **** **  *******  **  PROGRAM STARTED IN /scratch/hpc-prf-metdyn/metdyn02_Remi
                                           /14_hBN/aug-SZV-MOLOPT/GAPW/boxheight
                                           /12

 CP2K| version string:                 CP2K version 2025.2 (Development Version)
 CP2K| source code revision number:                                  git:8d80afc
 CP2K| cp2kflags: omp libint fftw3 libxc libgrpp elpa parallel scalapack mpi_f08
 CP2K|             cosma xsmm plumed2 spglib libvori libbqb libvdwxc hdf5
 CP2K| is freely available from                            https://www.cp2k.org/
 CP2K| Program compiled at                         Mon Sep  8 11:02:08 CEST 2025
 CP2K| Program compiled on                                              n2login1
 CP2K| Program compiled for                                                local
 CP2K| Data directory path    /opt/software/pc2/EB-SW/software/CP2K/2025.2-foss-
 CP2K| Input file name                                                    GW.inp

 GLOBAL| Force Environment number                                              1
 GLOBAL| Basis set file name                                        BASIS_MOLOPT
 GLOBAL| Potential file name                                  GTH_SOC_POTENTIALS
 GLOBAL| MM Potential file name                                     MM_POTENTIAL
 GLOBAL| Coordinate file name                                      __STD_INPUT__
 GLOBAL| Method name                                                        CP2K
 GLOBAL| Project name                                                        hBN
 GLOBAL| Run type                                                         ENERGY
 GLOBAL| FFT library                                                       FFTW3
 GLOBAL| Diagonalization library                                            ELPA
 GLOBAL| Cholesky decomposition library                                ScaLAPACK
 GLOBAL| DGEMM library                                                      BLAS
 GLOBAL| Minimum number of eigenvectors for ELPA usage                        16
 GLOBAL| Orthonormality check for eigenvectors                          DISABLED
 GLOBAL| Matrix multiplication library                                     COSMA
 GLOBAL| All-to-all communication in single precision                          F
 GLOBAL| FFTs using library dependent lengths                                  F
 GLOBAL| Grid backend                                                       AUTO
 GLOBAL| Global print level                                               MEDIUM
 GLOBAL| MPI I/O enabled                                                       T
 GLOBAL| Total number of message passing processes                           128
 GLOBAL| Number of threads for this process                                    4
 GLOBAL| This output is from process                                           0
 GLOBAL| OpenMP stack size per thread (OMP_STACKSIZE)                    default
 GLOBAL| CPU model name                          AMD EPYC 7763 64-Core Processor
 GLOBAL| CPUID                                                              1002

 MEMORY| system memory details [Kb]
 MEMORY|                        rank 0           min           max       average
 MEMORY| MemTotal           1056620468    1056620440    1056620500    1056620468
 MEMORY| MemFree            1024024788    1024024760    1029462704    1027795986
 MEMORY| Buffers                114652         15808        525336        234850
 MEMORY| Cached               16974608      13098824      16974608      14898075
 MEMORY| Slab                  4095028       2283404       4095028       3061684
 MEMORY| SReclaimable          1545996        601616       1545996       1129293
 MEMORY| MemLikelyFree      1042660044    1042660016    1045125536    1044058204


 *** Fundamental physical constants (SI units) ***

 *** Literature: B. J. Mohr and B. N. Taylor,
 ***             CODATA recommended values of the fundamental physical
 ***             constants: 2006, Web Version 5.1
 ***             http://physics.nist.gov/constants

 Speed of light in vacuum [m/s]                             2.99792458000000E+08
 Magnetic constant or permeability of vacuum [N/A**2]       1.25663706143592E-06
 Electric constant or permittivity of vacuum [F/m]          8.85418781762039E-12
 Planck constant (h) [J*s]                                  6.62606896000000E-34
 Planck constant (h-bar) [J*s]                              1.05457162825177E-34
 Elementary charge [C]                                      1.60217648700000E-19
 Electron mass [kg]                                         9.10938215000000E-31
 Electron g factor [ ]                                     -2.00231930436220E+00
 Proton mass [kg]                                           1.67262163700000E-27
 Fine-structure constant                                    7.29735253760000E-03
 Rydberg constant [1/m]                                     1.09737315685270E+07
 Avogadro constant [1/mol]                                  6.02214179000000E+23
 Boltzmann constant [J/K]                                   1.38065040000000E-23
 Atomic mass unit [kg]                                      1.66053878200000E-27
 Bohr radius [m]                                            5.29177208590000E-11

 *** Conversion factors ***

 [u] -> [a.u.]                                              1.82288848426455E+03
 [Angstrom] -> [Bohr] = [a.u.]                              1.88972613288564E+00
 [a.u.] = [Bohr] -> [Angstrom]                              5.29177208590000E-01
 [a.u.] -> [s]                                              2.41888432650478E-17
 [a.u.] -> [fs]                                             2.41888432650478E-02
 [a.u.] -> [J]                                              4.35974393937059E-18
 [a.u.] -> [N]                                              8.23872205491840E-08
 [a.u.] -> [K]                                              3.15774647902944E+05
 [a.u.] -> [kJ/mol]                                         2.62549961709828E+03
 [a.u.] -> [kcal/mol]                                       6.27509468713739E+02
 [a.u.] -> [Pa]                                             2.94210107994716E+13
 [a.u.] -> [bar]                                            2.94210107994716E+08
 [a.u.] -> [atm]                                            2.90362800883016E+08
 [a.u.] -> [eV]                                             2.72113838565563E+01
 [a.u.] -> [Hz]                                             6.57968392072181E+15
 [a.u.] -> [1/cm] (wave numbers)                            2.19474631370540E+05
 [a.u./Bohr**2] -> [1/cm]                                   5.14048714338585E+03
 

 CELL_TOP| Volume [angstrom^3]:                                        65.472560
 CELL_TOP| Vector a [angstrom     2.510     0.000     0.000   |a| =     2.510000
 CELL_TOP| Vector b [angstrom    -1.255     2.174     0.000   |b| =     2.510000
 CELL_TOP| Vector c [angstrom     0.000     0.000    12.000   |c| =    12.000000
 CELL_TOP| Angle (b,c), alpha [degree]:                                90.000000
 CELL_TOP| Angle (a,c), beta  [degree]:                                90.000000
 CELL_TOP| Angle (a,b), gamma [degree]:                               120.000000
 CELL_TOP| Numerically orthorhombic:                                          NO
 CELL_TOP| Periodicity                                                        XY

 GENERATE|  Preliminary Number of Bonds generated:                             0
 GENERATE|  Achieved consistency in connectivity generation.

 CELL| Volume [angstrom^3]:                                            65.472560
 CELL| Vector a [angstrom]:       2.510     0.000     0.000   |a| =     2.510000
 CELL| Vector b [angstrom]:      -1.255     2.174     0.000   |b| =     2.510000
 CELL| Vector c [angstrom]:       0.000     0.000    12.000   |c| =    12.000000
 CELL| Angle (b,c), alpha [degree]:                                    90.000000
 CELL| Angle (a,c), beta  [degree]:                                    90.000000
 CELL| Angle (a,b), gamma [degree]:                                   120.000000
 CELL| Numerically orthorhombic:                                              NO
 CELL| Periodicity                                                            XY

 CELL_REF| Volume [angstrom^3]:                                        65.472560
 CELL_REF| Vector a [angstrom     2.510     0.000     0.000   |a| =     2.510000
 CELL_REF| Vector b [angstrom    -1.255     2.174     0.000   |b| =     2.510000
 CELL_REF| Vector c [angstrom     0.000     0.000    12.000   |c| =    12.000000
 CELL_REF| Angle (b,c), alpha [degree]:                                90.000000
 CELL_REF| Angle (a,c), beta  [degree]:                                90.000000
 CELL_REF| Angle (a,b), gamma [degree]:                               120.000000
 CELL_REF| Numerically orthorhombic:                                          NO
 CELL_REF| Periodicity                                                        XY

 *******************************************************************************
                                    Kpoints
 *******************************************************************************
 BRILLOUIN| K-point scheme                                        Monkhorst-Pack
 BRILLOUIN| K-Point grid                                            48   48    1
 BRILLOUIN| Accuracy in Symmetry determination                      0.100000E-05
 BRILLOUIN| K-Point point group symmetrization                               OFF
 BRILLOUIN| Wavefunction type                                            COMPLEX
 BRILLOUIN| List of Kpoints [2 Pi/Bohr]                                     1152
 BRILLOUIN| Number           Weight            X              Y              Z
 BRILLOUIN|     1           0.00087       -0.48958       -0.48958        0.00000
 BRILLOUIN|     2           0.00087       -0.48958       -0.46875        0.00000
 BRILLOUIN|     3           0.00087       -0.48958       -0.44792        0.00000
 BRILLOUIN|     4           0.00087       -0.48958       -0.42708        0.00000
 BRILLOUIN|     5           0.00087       -0.48958       -0.40625        0.00000
 BRILLOUIN|     6           0.00087       -0.48958       -0.38542        0.00000
 BRILLOUIN|     7           0.00087       -0.48958       -0.36458        0.00000
 BRILLOUIN|     8           0.00087       -0.48958       -0.34375        0.00000
 BRILLOUIN|     9           0.00087       -0.48958       -0.32292        0.00000
 BRILLOUIN|    10           0.00087       -0.48958       -0.30208        0.00000
 BRILLOUIN|    11           0.00087       -0.48958       -0.28125        0.00000
 BRILLOUIN|    12           0.00087       -0.48958       -0.26042        0.00000
 BRILLOUIN|    13           0.00087       -0.48958       -0.23958        0.00000
 BRILLOUIN|    14           0.00087       -0.48958       -0.21875        0.00000
 BRILLOUIN|    15           0.00087       -0.48958       -0.19792        0.00000
 BRILLOUIN|    16           0.00087       -0.48958       -0.17708        0.00000
 BRILLOUIN|    17           0.00087       -0.48958       -0.15625        0.00000
 BRILLOUIN|    18           0.00087       -0.48958       -0.13542        0.00000
 BRILLOUIN|    19           0.00087       -0.48958       -0.11458        0.00000
 BRILLOUIN|    20           0.00087       -0.48958       -0.09375        0.00000
 BRILLOUIN|    21           0.00087       -0.48958       -0.07292        0.00000
 BRILLOUIN|    22           0.00087       -0.48958       -0.05208        0.00000
 BRILLOUIN|    23           0.00087       -0.48958       -0.03125        0.00000
 BRILLOUIN|    24           0.00087       -0.48958       -0.01042        0.00000
 BRILLOUIN|    25           0.00087       -0.48958        0.01042        0.00000
 BRILLOUIN|    26           0.00087       -0.48958        0.03125        0.00000
 BRILLOUIN|    27           0.00087       -0.48958        0.05208        0.00000
 BRILLOUIN|    28           0.00087       -0.48958        0.07292        0.00000
 BRILLOUIN|    29           0.00087       -0.48958        0.09375        0.00000
 BRILLOUIN|    30           0.00087       -0.48958        0.11458        0.00000
 BRILLOUIN|    31           0.00087       -0.48958        0.13542        0.00000
 BRILLOUIN|    32           0.00087       -0.48958        0.15625        0.00000
 BRILLOUIN|    33           0.00087       -0.48958        0.17708        0.00000
 BRILLOUIN|    34           0.00087       -0.48958        0.19792        0.00000
 BRILLOUIN|    35           0.00087       -0.48958        0.21875        0.00000
 BRILLOUIN|    36           0.00087       -0.48958        0.23958        0.00000
 BRILLOUIN|    37           0.00087       -0.48958        0.26042        0.00000
 BRILLOUIN|    38           0.00087       -0.48958        0.28125        0.00000
 BRILLOUIN|    39           0.00087       -0.48958        0.30208        0.00000
 BRILLOUIN|    40           0.00087       -0.48958        0.32292        0.00000
 BRILLOUIN|    41           0.00087       -0.48958        0.34375        0.00000
 BRILLOUIN|    42           0.00087       -0.48958        0.36458        0.00000
 BRILLOUIN|    43           0.00087       -0.48958        0.38542        0.00000
 BRILLOUIN|    44           0.00087       -0.48958        0.40625        0.00000
 BRILLOUIN|    45           0.00087       -0.48958        0.42708        0.00000
 BRILLOUIN|    46           0.00087       -0.48958        0.44792        0.00000
 BRILLOUIN|    47           0.00087       -0.48958        0.46875        0.00000
 BRILLOUIN|    48           0.00087       -0.48958        0.48958        0.00000
 BRILLOUIN|    49           0.00087       -0.46875       -0.48958        0.00000
 BRILLOUIN|    50           0.00087       -0.46875       -0.46875        0.00000
 BRILLOUIN|    51           0.00087       -0.46875       -0.44792        0.00000
 BRILLOUIN|    52           0.00087       -0.46875       -0.42708        0.00000
 BRILLOUIN|    53           0.00087       -0.46875       -0.40625        0.00000
 BRILLOUIN|    54           0.00087       -0.46875       -0.38542        0.00000
 BRILLOUIN|    55           0.00087       -0.46875       -0.36458        0.00000
 BRILLOUIN|    56           0.00087       -0.46875       -0.34375        0.00000
 BRILLOUIN|    57           0.00087       -0.46875       -0.32292        0.00000
 BRILLOUIN|    58           0.00087       -0.46875       -0.30208        0.00000
 BRILLOUIN|    59           0.00087       -0.46875       -0.28125        0.00000
 BRILLOUIN|    60           0.00087       -0.46875       -0.26042        0.00000
 BRILLOUIN|    61           0.00087       -0.46875       -0.23958        0.00000
 BRILLOUIN|    62           0.00087       -0.46875       -0.21875        0.00000
 BRILLOUIN|    63           0.00087       -0.46875       -0.19792        0.00000
 BRILLOUIN|    64           0.00087       -0.46875       -0.17708        0.00000
 BRILLOUIN|    65           0.00087       -0.46875       -0.15625        0.00000
 BRILLOUIN|    66           0.00087       -0.46875       -0.13542        0.00000
 BRILLOUIN|    67           0.00087       -0.46875       -0.11458        0.00000
 BRILLOUIN|    68           0.00087       -0.46875       -0.09375        0.00000
 BRILLOUIN|    69           0.00087       -0.46875       -0.07292        0.00000
 BRILLOUIN|    70           0.00087       -0.46875       -0.05208        0.00000
 BRILLOUIN|    71           0.00087       -0.46875       -0.03125        0.00000
 BRILLOUIN|    72           0.00087       -0.46875       -0.01042        0.00000
 BRILLOUIN|    73           0.00087       -0.46875        0.01042        0.00000
 BRILLOUIN|    74           0.00087       -0.46875        0.03125        0.00000
 BRILLOUIN|    75           0.00087       -0.46875        0.05208        0.00000
 BRILLOUIN|    76           0.00087       -0.46875        0.07292        0.00000
 BRILLOUIN|    77           0.00087       -0.46875        0.09375        0.00000
 BRILLOUIN|    78           0.00087       -0.46875        0.11458        0.00000
 BRILLOUIN|    79           0.00087       -0.46875        0.13542        0.00000
 BRILLOUIN|    80           0.00087       -0.46875        0.15625        0.00000
 BRILLOUIN|    81           0.00087       -0.46875        0.17708        0.00000
 BRILLOUIN|    82           0.00087       -0.46875        0.19792        0.00000
 BRILLOUIN|    83           0.00087       -0.46875        0.21875        0.00000
 BRILLOUIN|    84           0.00087       -0.46875        0.23958        0.00000
 BRILLOUIN|    85           0.00087       -0.46875        0.26042        0.00000
 BRILLOUIN|    86           0.00087       -0.46875        0.28125        0.00000
 BRILLOUIN|    87           0.00087       -0.46875        0.30208        0.00000
 BRILLOUIN|    88           0.00087       -0.46875        0.32292        0.00000
 BRILLOUIN|    89           0.00087       -0.46875        0.34375        0.00000
 BRILLOUIN|    90           0.00087       -0.46875        0.36458        0.00000
 BRILLOUIN|    91           0.00087       -0.46875        0.38542        0.00000
 BRILLOUIN|    92           0.00087       -0.46875        0.40625        0.00000
 BRILLOUIN|    93           0.00087       -0.46875        0.42708        0.00000
 BRILLOUIN|    94           0.00087       -0.46875        0.44792        0.00000
 BRILLOUIN|    95           0.00087       -0.46875        0.46875        0.00000
 BRILLOUIN|    96           0.00087       -0.46875        0.48958        0.00000
 BRILLOUIN|    97           0.00087       -0.44792       -0.48958        0.00000
 BRILLOUIN|    98           0.00087       -0.44792       -0.46875        0.00000
 BRILLOUIN|    99           0.00087       -0.44792       -0.44792        0.00000
 BRILLOUIN|   100           0.00087       -0.44792       -0.42708        0.00000
 BRILLOUIN|   101           0.00087       -0.44792       -0.40625        0.00000
 BRILLOUIN|   102           0.00087       -0.44792       -0.38542        0.00000
 BRILLOUIN|   103           0.00087       -0.44792       -0.36458        0.00000
 BRILLOUIN|   104           0.00087       -0.44792       -0.34375        0.00000
 BRILLOUIN|   105           0.00087       -0.44792       -0.32292        0.00000
 BRILLOUIN|   106           0.00087       -0.44792       -0.30208        0.00000
 BRILLOUIN|   107           0.00087       -0.44792       -0.28125        0.00000
 BRILLOUIN|   108           0.00087       -0.44792       -0.26042        0.00000
 BRILLOUIN|   109           0.00087       -0.44792       -0.23958        0.00000
 BRILLOUIN|   110           0.00087       -0.44792       -0.21875        0.00000
 BRILLOUIN|   111           0.00087       -0.44792       -0.19792        0.00000
 BRILLOUIN|   112           0.00087       -0.44792       -0.17708        0.00000
 BRILLOUIN|   113           0.00087       -0.44792       -0.15625        0.00000
 BRILLOUIN|   114           0.00087       -0.44792       -0.13542        0.00000
 BRILLOUIN|   115           0.00087       -0.44792       -0.11458        0.00000
 BRILLOUIN|   116           0.00087       -0.44792       -0.09375        0.00000
 BRILLOUIN|   117           0.00087       -0.44792       -0.07292        0.00000
 BRILLOUIN|   118           0.00087       -0.44792       -0.05208        0.00000
 BRILLOUIN|   119           0.00087       -0.44792       -0.03125        0.00000
 BRILLOUIN|   120           0.00087       -0.44792       -0.01042        0.00000
 BRILLOUIN|   121           0.00087       -0.44792        0.01042        0.00000
 BRILLOUIN|   122           0.00087       -0.44792        0.03125        0.00000
 BRILLOUIN|   123           0.00087       -0.44792        0.05208        0.00000
 BRILLOUIN|   124           0.00087       -0.44792        0.07292        0.00000
 BRILLOUIN|   125           0.00087       -0.44792        0.09375        0.00000
 BRILLOUIN|   126           0.00087       -0.44792        0.11458        0.00000
 BRILLOUIN|   127           0.00087       -0.44792        0.13542        0.00000
 BRILLOUIN|   128           0.00087       -0.44792        0.15625        0.00000
 BRILLOUIN|   129           0.00087       -0.44792        0.17708        0.00000
 BRILLOUIN|   130           0.00087       -0.44792        0.19792        0.00000
 BRILLOUIN|   131           0.00087       -0.44792        0.21875        0.00000
 BRILLOUIN|   132           0.00087       -0.44792        0.23958        0.00000
 BRILLOUIN|   133           0.00087       -0.44792        0.26042        0.00000
 BRILLOUIN|   134           0.00087       -0.44792        0.28125        0.00000
 BRILLOUIN|   135           0.00087       -0.44792        0.30208        0.00000
 BRILLOUIN|   136           0.00087       -0.44792        0.32292        0.00000
 BRILLOUIN|   137           0.00087       -0.44792        0.34375        0.00000
 BRILLOUIN|   138           0.00087       -0.44792        0.36458        0.00000
 BRILLOUIN|   139           0.00087       -0.44792        0.38542        0.00000
 BRILLOUIN|   140           0.00087       -0.44792        0.40625        0.00000
 BRILLOUIN|   141           0.00087       -0.44792        0.42708        0.00000
 BRILLOUIN|   142           0.00087       -0.44792        0.44792        0.00000
 BRILLOUIN|   143           0.00087       -0.44792        0.46875        0.00000
 BRILLOUIN|   144           0.00087       -0.44792        0.48958        0.00000
 BRILLOUIN|   145           0.00087       -0.42708       -0.48958        0.00000
 BRILLOUIN|   146           0.00087       -0.42708       -0.46875        0.00000
 BRILLOUIN|   147           0.00087       -0.42708       -0.44792        0.00000
 BRILLOUIN|   148           0.00087       -0.42708       -0.42708        0.00000
 BRILLOUIN|   149           0.00087       -0.42708       -0.40625        0.00000
 BRILLOUIN|   150           0.00087       -0.42708       -0.38542        0.00000
 BRILLOUIN|   151           0.00087       -0.42708       -0.36458        0.00000
 BRILLOUIN|   152           0.00087       -0.42708       -0.34375        0.00000
 BRILLOUIN|   153           0.00087       -0.42708       -0.32292        0.00000
 BRILLOUIN|   154           0.00087       -0.42708       -0.30208        0.00000
 BRILLOUIN|   155           0.00087       -0.42708       -0.28125        0.00000
 BRILLOUIN|   156           0.00087       -0.42708       -0.26042        0.00000
 BRILLOUIN|   157           0.00087       -0.42708       -0.23958        0.00000
 BRILLOUIN|   158           0.00087       -0.42708       -0.21875        0.00000
 BRILLOUIN|   159           0.00087       -0.42708       -0.19792        0.00000
 BRILLOUIN|   160           0.00087       -0.42708       -0.17708        0.00000
 BRILLOUIN|   161           0.00087       -0.42708       -0.15625        0.00000
 BRILLOUIN|   162           0.00087       -0.42708       -0.13542        0.00000
 BRILLOUIN|   163           0.00087       -0.42708       -0.11458        0.00000
 BRILLOUIN|   164           0.00087       -0.42708       -0.09375        0.00000
 BRILLOUIN|   165           0.00087       -0.42708       -0.07292        0.00000
 BRILLOUIN|   166           0.00087       -0.42708       -0.05208        0.00000
 BRILLOUIN|   167           0.00087       -0.42708       -0.03125        0.00000
 BRILLOUIN|   168           0.00087       -0.42708       -0.01042        0.00000
 BRILLOUIN|   169           0.00087       -0.42708        0.01042        0.00000
 BRILLOUIN|   170           0.00087       -0.42708        0.03125        0.00000
 BRILLOUIN|   171           0.00087       -0.42708        0.05208        0.00000
 BRILLOUIN|   172           0.00087       -0.42708        0.07292        0.00000
 BRILLOUIN|   173           0.00087       -0.42708        0.09375        0.00000
 BRILLOUIN|   174           0.00087       -0.42708        0.11458        0.00000
 BRILLOUIN|   175           0.00087       -0.42708        0.13542        0.00000
 BRILLOUIN|   176           0.00087       -0.42708        0.15625        0.00000
 BRILLOUIN|   177           0.00087       -0.42708        0.17708        0.00000
 BRILLOUIN|   178           0.00087       -0.42708        0.19792        0.00000
 BRILLOUIN|   179           0.00087       -0.42708        0.21875        0.00000
 BRILLOUIN|   180           0.00087       -0.42708        0.23958        0.00000
 BRILLOUIN|   181           0.00087       -0.42708        0.26042        0.00000
 BRILLOUIN|   182           0.00087       -0.42708        0.28125        0.00000
 BRILLOUIN|   183           0.00087       -0.42708        0.30208        0.00000
 BRILLOUIN|   184           0.00087       -0.42708        0.32292        0.00000
 BRILLOUIN|   185           0.00087       -0.42708        0.34375        0.00000
 BRILLOUIN|   186           0.00087       -0.42708        0.36458        0.00000
 BRILLOUIN|   187           0.00087       -0.42708        0.38542        0.00000
 BRILLOUIN|   188           0.00087       -0.42708        0.40625        0.00000
 BRILLOUIN|   189           0.00087       -0.42708        0.42708        0.00000
 BRILLOUIN|   190           0.00087       -0.42708        0.44792        0.00000
 BRILLOUIN|   191           0.00087       -0.42708        0.46875        0.00000
 BRILLOUIN|   192           0.00087       -0.42708        0.48958        0.00000
 BRILLOUIN|   193           0.00087       -0.40625       -0.48958        0.00000
 BRILLOUIN|   194           0.00087       -0.40625       -0.46875        0.00000
 BRILLOUIN|   195           0.00087       -0.40625       -0.44792        0.00000
 BRILLOUIN|   196           0.00087       -0.40625       -0.42708        0.00000
 BRILLOUIN|   197           0.00087       -0.40625       -0.40625        0.00000
 BRILLOUIN|   198           0.00087       -0.40625       -0.38542        0.00000
 BRILLOUIN|   199           0.00087       -0.40625       -0.36458        0.00000
 BRILLOUIN|   200           0.00087       -0.40625       -0.34375        0.00000
 BRILLOUIN|   201           0.00087       -0.40625       -0.32292        0.00000
 BRILLOUIN|   202           0.00087       -0.40625       -0.30208        0.00000
 BRILLOUIN|   203           0.00087       -0.40625       -0.28125        0.00000
 BRILLOUIN|   204           0.00087       -0.40625       -0.26042        0.00000
 BRILLOUIN|   205           0.00087       -0.40625       -0.23958        0.00000
 BRILLOUIN|   206           0.00087       -0.40625       -0.21875        0.00000
 BRILLOUIN|   207           0.00087       -0.40625       -0.19792        0.00000
 BRILLOUIN|   208           0.00087       -0.40625       -0.17708        0.00000
 BRILLOUIN|   209           0.00087       -0.40625       -0.15625        0.00000
 BRILLOUIN|   210           0.00087       -0.40625       -0.13542        0.00000
 BRILLOUIN|   211           0.00087       -0.40625       -0.11458        0.00000
 BRILLOUIN|   212           0.00087       -0.40625       -0.09375        0.00000
 BRILLOUIN|   213           0.00087       -0.40625       -0.07292        0.00000
 BRILLOUIN|   214           0.00087       -0.40625       -0.05208        0.00000
 BRILLOUIN|   215           0.00087       -0.40625       -0.03125        0.00000
 BRILLOUIN|   216           0.00087       -0.40625       -0.01042        0.00000
 BRILLOUIN|   217           0.00087       -0.40625        0.01042        0.00000
 BRILLOUIN|   218           0.00087       -0.40625        0.03125        0.00000
 BRILLOUIN|   219           0.00087       -0.40625        0.05208        0.00000
 BRILLOUIN|   220           0.00087       -0.40625        0.07292        0.00000
 BRILLOUIN|   221           0.00087       -0.40625        0.09375        0.00000
 BRILLOUIN|   222           0.00087       -0.40625        0.11458        0.00000
 BRILLOUIN|   223           0.00087       -0.40625        0.13542        0.00000
 BRILLOUIN|   224           0.00087       -0.40625        0.15625        0.00000
 BRILLOUIN|   225           0.00087       -0.40625        0.17708        0.00000
 BRILLOUIN|   226           0.00087       -0.40625        0.19792        0.00000
 BRILLOUIN|   227           0.00087       -0.40625        0.21875        0.00000
 BRILLOUIN|   228           0.00087       -0.40625        0.23958        0.00000
 BRILLOUIN|   229           0.00087       -0.40625        0.26042        0.00000
 BRILLOUIN|   230           0.00087       -0.40625        0.28125        0.00000
 BRILLOUIN|   231           0.00087       -0.40625        0.30208        0.00000
 BRILLOUIN|   232           0.00087       -0.40625        0.32292        0.00000
 BRILLOUIN|   233           0.00087       -0.40625        0.34375        0.00000
 BRILLOUIN|   234           0.00087       -0.40625        0.36458        0.00000
 BRILLOUIN|   235           0.00087       -0.40625        0.38542        0.00000
 BRILLOUIN|   236           0.00087       -0.40625        0.40625        0.00000
 BRILLOUIN|   237           0.00087       -0.40625        0.42708        0.00000
 BRILLOUIN|   238           0.00087       -0.40625        0.44792        0.00000
 BRILLOUIN|   239           0.00087       -0.40625        0.46875        0.00000
 BRILLOUIN|   240           0.00087       -0.40625        0.48958        0.00000
 BRILLOUIN|   241           0.00087       -0.38542       -0.48958        0.00000
 BRILLOUIN|   242           0.00087       -0.38542       -0.46875        0.00000
 BRILLOUIN|   243           0.00087       -0.38542       -0.44792        0.00000
 BRILLOUIN|   244           0.00087       -0.38542       -0.42708        0.00000
 BRILLOUIN|   245           0.00087       -0.38542       -0.40625        0.00000
 BRILLOUIN|   246           0.00087       -0.38542       -0.38542        0.00000
 BRILLOUIN|   247           0.00087       -0.38542       -0.36458        0.00000
 BRILLOUIN|   248           0.00087       -0.38542       -0.34375        0.00000
 BRILLOUIN|   249           0.00087       -0.38542       -0.32292        0.00000
 BRILLOUIN|   250           0.00087       -0.38542       -0.30208        0.00000
 BRILLOUIN|   251           0.00087       -0.38542       -0.28125        0.00000
 BRILLOUIN|   252           0.00087       -0.38542       -0.26042        0.00000
 BRILLOUIN|   253           0.00087       -0.38542       -0.23958        0.00000
 BRILLOUIN|   254           0.00087       -0.38542       -0.21875        0.00000
 BRILLOUIN|   255           0.00087       -0.38542       -0.19792        0.00000
 BRILLOUIN|   256           0.00087       -0.38542       -0.17708        0.00000
 BRILLOUIN|   257           0.00087       -0.38542       -0.15625        0.00000
 BRILLOUIN|   258           0.00087       -0.38542       -0.13542        0.00000
 BRILLOUIN|   259           0.00087       -0.38542       -0.11458        0.00000
 BRILLOUIN|   260           0.00087       -0.38542       -0.09375        0.00000
 BRILLOUIN|   261           0.00087       -0.38542       -0.07292        0.00000
 BRILLOUIN|   262           0.00087       -0.38542       -0.05208        0.00000
 BRILLOUIN|   263           0.00087       -0.38542       -0.03125        0.00000
 BRILLOUIN|   264           0.00087       -0.38542       -0.01042        0.00000
 BRILLOUIN|   265           0.00087       -0.38542        0.01042        0.00000
 BRILLOUIN|   266           0.00087       -0.38542        0.03125        0.00000
 BRILLOUIN|   267           0.00087       -0.38542        0.05208        0.00000
 BRILLOUIN|   268           0.00087       -0.38542        0.07292        0.00000
 BRILLOUIN|   269           0.00087       -0.38542        0.09375        0.00000
 BRILLOUIN|   270           0.00087       -0.38542        0.11458        0.00000
 BRILLOUIN|   271           0.00087       -0.38542        0.13542        0.00000
 BRILLOUIN|   272           0.00087       -0.38542        0.15625        0.00000
 BRILLOUIN|   273           0.00087       -0.38542        0.17708        0.00000
 BRILLOUIN|   274           0.00087       -0.38542        0.19792        0.00000
 BRILLOUIN|   275           0.00087       -0.38542        0.21875        0.00000
 BRILLOUIN|   276           0.00087       -0.38542        0.23958        0.00000
 BRILLOUIN|   277           0.00087       -0.38542        0.26042        0.00000
 BRILLOUIN|   278           0.00087       -0.38542        0.28125        0.00000
 BRILLOUIN|   279           0.00087       -0.38542        0.30208        0.00000
 BRILLOUIN|   280           0.00087       -0.38542        0.32292        0.00000
 BRILLOUIN|   281           0.00087       -0.38542        0.34375        0.00000
 BRILLOUIN|   282           0.00087       -0.38542        0.36458        0.00000
 BRILLOUIN|   283           0.00087       -0.38542        0.38542        0.00000
 BRILLOUIN|   284           0.00087       -0.38542        0.40625        0.00000
 BRILLOUIN|   285           0.00087       -0.38542        0.42708        0.00000
 BRILLOUIN|   286           0.00087       -0.38542        0.44792        0.00000
 BRILLOUIN|   287           0.00087       -0.38542        0.46875        0.00000
 BRILLOUIN|   288           0.00087       -0.38542        0.48958        0.00000
 BRILLOUIN|   289           0.00087       -0.36458       -0.48958        0.00000
 BRILLOUIN|   290           0.00087       -0.36458       -0.46875        0.00000
 BRILLOUIN|   291           0.00087       -0.36458       -0.44792        0.00000
 BRILLOUIN|   292           0.00087       -0.36458       -0.42708        0.00000
 BRILLOUIN|   293           0.00087       -0.36458       -0.40625        0.00000
 BRILLOUIN|   294           0.00087       -0.36458       -0.38542        0.00000
 BRILLOUIN|   295           0.00087       -0.36458       -0.36458        0.00000
 BRILLOUIN|   296           0.00087       -0.36458       -0.34375        0.00000
 BRILLOUIN|   297           0.00087       -0.36458       -0.32292        0.00000
 BRILLOUIN|   298           0.00087       -0.36458       -0.30208        0.00000
 BRILLOUIN|   299           0.00087       -0.36458       -0.28125        0.00000
 BRILLOUIN|   300           0.00087       -0.36458       -0.26042        0.00000
 BRILLOUIN|   301           0.00087       -0.36458       -0.23958        0.00000
 BRILLOUIN|   302           0.00087       -0.36458       -0.21875        0.00000
 BRILLOUIN|   303           0.00087       -0.36458       -0.19792        0.00000
 BRILLOUIN|   304           0.00087       -0.36458       -0.17708        0.00000
 BRILLOUIN|   305           0.00087       -0.36458       -0.15625        0.00000
 BRILLOUIN|   306           0.00087       -0.36458       -0.13542        0.00000
 BRILLOUIN|   307           0.00087       -0.36458       -0.11458        0.00000
 BRILLOUIN|   308           0.00087       -0.36458       -0.09375        0.00000
 BRILLOUIN|   309           0.00087       -0.36458       -0.07292        0.00000
 BRILLOUIN|   310           0.00087       -0.36458       -0.05208        0.00000
 BRILLOUIN|   311           0.00087       -0.36458       -0.03125        0.00000
 BRILLOUIN|   312           0.00087       -0.36458       -0.01042        0.00000
 BRILLOUIN|   313           0.00087       -0.36458        0.01042        0.00000
 BRILLOUIN|   314           0.00087       -0.36458        0.03125        0.00000
 BRILLOUIN|   315           0.00087       -0.36458        0.05208        0.00000
 BRILLOUIN|   316           0.00087       -0.36458        0.07292        0.00000
 BRILLOUIN|   317           0.00087       -0.36458        0.09375        0.00000
 BRILLOUIN|   318           0.00087       -0.36458        0.11458        0.00000
 BRILLOUIN|   319           0.00087       -0.36458        0.13542        0.00000
 BRILLOUIN|   320           0.00087       -0.36458        0.15625        0.00000
 BRILLOUIN|   321           0.00087       -0.36458        0.17708        0.00000
 BRILLOUIN|   322           0.00087       -0.36458        0.19792        0.00000
 BRILLOUIN|   323           0.00087       -0.36458        0.21875        0.00000
 BRILLOUIN|   324           0.00087       -0.36458        0.23958        0.00000
 BRILLOUIN|   325           0.00087       -0.36458        0.26042        0.00000
 BRILLOUIN|   326           0.00087       -0.36458        0.28125        0.00000
 BRILLOUIN|   327           0.00087       -0.36458        0.30208        0.00000
 BRILLOUIN|   328           0.00087       -0.36458        0.32292        0.00000
 BRILLOUIN|   329           0.00087       -0.36458        0.34375        0.00000
 BRILLOUIN|   330           0.00087       -0.36458        0.36458        0.00000
 BRILLOUIN|   331           0.00087       -0.36458        0.38542        0.00000
 BRILLOUIN|   332           0.00087       -0.36458        0.40625        0.00000
 BRILLOUIN|   333           0.00087       -0.36458        0.42708        0.00000
 BRILLOUIN|   334           0.00087       -0.36458        0.44792        0.00000
 BRILLOUIN|   335           0.00087       -0.36458        0.46875        0.00000
 BRILLOUIN|   336           0.00087       -0.36458        0.48958        0.00000
 BRILLOUIN|   337           0.00087       -0.34375       -0.48958        0.00000
 BRILLOUIN|   338           0.00087       -0.34375       -0.46875        0.00000
 BRILLOUIN|   339           0.00087       -0.34375       -0.44792        0.00000
 BRILLOUIN|   340           0.00087       -0.34375       -0.42708        0.00000
 BRILLOUIN|   341           0.00087       -0.34375       -0.40625        0.00000
 BRILLOUIN|   342           0.00087       -0.34375       -0.38542        0.00000
 BRILLOUIN|   343           0.00087       -0.34375       -0.36458        0.00000
 BRILLOUIN|   344           0.00087       -0.34375       -0.34375        0.00000
 BRILLOUIN|   345           0.00087       -0.34375       -0.32292        0.00000
 BRILLOUIN|   346           0.00087       -0.34375       -0.30208        0.00000
 BRILLOUIN|   347           0.00087       -0.34375       -0.28125        0.00000
 BRILLOUIN|   348           0.00087       -0.34375       -0.26042        0.00000
 BRILLOUIN|   349           0.00087       -0.34375       -0.23958        0.00000
 BRILLOUIN|   350           0.00087       -0.34375       -0.21875        0.00000
 BRILLOUIN|   351           0.00087       -0.34375       -0.19792        0.00000
 BRILLOUIN|   352           0.00087       -0.34375       -0.17708        0.00000
 BRILLOUIN|   353           0.00087       -0.34375       -0.15625        0.00000
 BRILLOUIN|   354           0.00087       -0.34375       -0.13542        0.00000
 BRILLOUIN|   355           0.00087       -0.34375       -0.11458        0.00000
 BRILLOUIN|   356           0.00087       -0.34375       -0.09375        0.00000
 BRILLOUIN|   357           0.00087       -0.34375       -0.07292        0.00000
 BRILLOUIN|   358           0.00087       -0.34375       -0.05208        0.00000
 BRILLOUIN|   359           0.00087       -0.34375       -0.03125        0.00000
 BRILLOUIN|   360           0.00087       -0.34375       -0.01042        0.00000
 BRILLOUIN|   361           0.00087       -0.34375        0.01042        0.00000
 BRILLOUIN|   362           0.00087       -0.34375        0.03125        0.00000
 BRILLOUIN|   363           0.00087       -0.34375        0.05208        0.00000
 BRILLOUIN|   364           0.00087       -0.34375        0.07292        0.00000
 BRILLOUIN|   365           0.00087       -0.34375        0.09375        0.00000
 BRILLOUIN|   366           0.00087       -0.34375        0.11458        0.00000
 BRILLOUIN|   367           0.00087       -0.34375        0.13542        0.00000
 BRILLOUIN|   368           0.00087       -0.34375        0.15625        0.00000
 BRILLOUIN|   369           0.00087       -0.34375        0.17708        0.00000
 BRILLOUIN|   370           0.00087       -0.34375        0.19792        0.00000
 BRILLOUIN|   371           0.00087       -0.34375        0.21875        0.00000
 BRILLOUIN|   372           0.00087       -0.34375        0.23958        0.00000
 BRILLOUIN|   373           0.00087       -0.34375        0.26042        0.00000
 BRILLOUIN|   374           0.00087       -0.34375        0.28125        0.00000
 BRILLOUIN|   375           0.00087       -0.34375        0.30208        0.00000
 BRILLOUIN|   376           0.00087       -0.34375        0.32292        0.00000
 BRILLOUIN|   377           0.00087       -0.34375        0.34375        0.00000
 BRILLOUIN|   378           0.00087       -0.34375        0.36458        0.00000
 BRILLOUIN|   379           0.00087       -0.34375        0.38542        0.00000
 BRILLOUIN|   380           0.00087       -0.34375        0.40625        0.00000
 BRILLOUIN|   381           0.00087       -0.34375        0.42708        0.00000
 BRILLOUIN|   382           0.00087       -0.34375        0.44792        0.00000
 BRILLOUIN|   383           0.00087       -0.34375        0.46875        0.00000
 BRILLOUIN|   384           0.00087       -0.34375        0.48958        0.00000
 BRILLOUIN|   385           0.00087       -0.32292       -0.48958        0.00000
 BRILLOUIN|   386           0.00087       -0.32292       -0.46875        0.00000
 BRILLOUIN|   387           0.00087       -0.32292       -0.44792        0.00000
 BRILLOUIN|   388           0.00087       -0.32292       -0.42708        0.00000
 BRILLOUIN|   389           0.00087       -0.32292       -0.40625        0.00000
 BRILLOUIN|   390           0.00087       -0.32292       -0.38542        0.00000
 BRILLOUIN|   391           0.00087       -0.32292       -0.36458        0.00000
 BRILLOUIN|   392           0.00087       -0.32292       -0.34375        0.00000
 BRILLOUIN|   393           0.00087       -0.32292       -0.32292        0.00000
 BRILLOUIN|   394           0.00087       -0.32292       -0.30208        0.00000
 BRILLOUIN|   395           0.00087       -0.32292       -0.28125        0.00000
 BRILLOUIN|   396           0.00087       -0.32292       -0.26042        0.00000
 BRILLOUIN|   397           0.00087       -0.32292       -0.23958        0.00000
 BRILLOUIN|   398           0.00087       -0.32292       -0.21875        0.00000
 BRILLOUIN|   399           0.00087       -0.32292       -0.19792        0.00000
 BRILLOUIN|   400           0.00087       -0.32292       -0.17708        0.00000
 BRILLOUIN|   401           0.00087       -0.32292       -0.15625        0.00000
 BRILLOUIN|   402           0.00087       -0.32292       -0.13542        0.00000
 BRILLOUIN|   403           0.00087       -0.32292       -0.11458        0.00000
 BRILLOUIN|   404           0.00087       -0.32292       -0.09375        0.00000
 BRILLOUIN|   405           0.00087       -0.32292       -0.07292        0.00000
 BRILLOUIN|   406           0.00087       -0.32292       -0.05208        0.00000
 BRILLOUIN|   407           0.00087       -0.32292       -0.03125        0.00000
 BRILLOUIN|   408           0.00087       -0.32292       -0.01042        0.00000
 BRILLOUIN|   409           0.00087       -0.32292        0.01042        0.00000
 BRILLOUIN|   410           0.00087       -0.32292        0.03125        0.00000
 BRILLOUIN|   411           0.00087       -0.32292        0.05208        0.00000
 BRILLOUIN|   412           0.00087       -0.32292        0.07292        0.00000
 BRILLOUIN|   413           0.00087       -0.32292        0.09375        0.00000
 BRILLOUIN|   414           0.00087       -0.32292        0.11458        0.00000
 BRILLOUIN|   415           0.00087       -0.32292        0.13542        0.00000
 BRILLOUIN|   416           0.00087       -0.32292        0.15625        0.00000
 BRILLOUIN|   417           0.00087       -0.32292        0.17708        0.00000
 BRILLOUIN|   418           0.00087       -0.32292        0.19792        0.00000
 BRILLOUIN|   419           0.00087       -0.32292        0.21875        0.00000
 BRILLOUIN|   420           0.00087       -0.32292        0.23958        0.00000
 BRILLOUIN|   421           0.00087       -0.32292        0.26042        0.00000
 BRILLOUIN|   422           0.00087       -0.32292        0.28125        0.00000
 BRILLOUIN|   423           0.00087       -0.32292        0.30208        0.00000
 BRILLOUIN|   424           0.00087       -0.32292        0.32292        0.00000
 BRILLOUIN|   425           0.00087       -0.32292        0.34375        0.00000
 BRILLOUIN|   426           0.00087       -0.32292        0.36458        0.00000
 BRILLOUIN|   427           0.00087       -0.32292        0.38542        0.00000
 BRILLOUIN|   428           0.00087       -0.32292        0.40625        0.00000
 BRILLOUIN|   429           0.00087       -0.32292        0.42708        0.00000
 BRILLOUIN|   430           0.00087       -0.32292        0.44792        0.00000
 BRILLOUIN|   431           0.00087       -0.32292        0.46875        0.00000
 BRILLOUIN|   432           0.00087       -0.32292        0.48958        0.00000
 BRILLOUIN|   433           0.00087       -0.30208       -0.48958        0.00000
 BRILLOUIN|   434           0.00087       -0.30208       -0.46875        0.00000
 BRILLOUIN|   435           0.00087       -0.30208       -0.44792        0.00000
 BRILLOUIN|   436           0.00087       -0.30208       -0.42708        0.00000
 BRILLOUIN|   437           0.00087       -0.30208       -0.40625        0.00000
 BRILLOUIN|   438           0.00087       -0.30208       -0.38542        0.00000
 BRILLOUIN|   439           0.00087       -0.30208       -0.36458        0.00000
 BRILLOUIN|   440           0.00087       -0.30208       -0.34375        0.00000
 BRILLOUIN|   441           0.00087       -0.30208       -0.32292        0.00000
 BRILLOUIN|   442           0.00087       -0.30208       -0.30208        0.00000
 BRILLOUIN|   443           0.00087       -0.30208       -0.28125        0.00000
 BRILLOUIN|   444           0.00087       -0.30208       -0.26042        0.00000
 BRILLOUIN|   445           0.00087       -0.30208       -0.23958        0.00000
 BRILLOUIN|   446           0.00087       -0.30208       -0.21875        0.00000
 BRILLOUIN|   447           0.00087       -0.30208       -0.19792        0.00000
 BRILLOUIN|   448           0.00087       -0.30208       -0.17708        0.00000
 BRILLOUIN|   449           0.00087       -0.30208       -0.15625        0.00000
 BRILLOUIN|   450           0.00087       -0.30208       -0.13542        0.00000
 BRILLOUIN|   451           0.00087       -0.30208       -0.11458        0.00000
 BRILLOUIN|   452           0.00087       -0.30208       -0.09375        0.00000
 BRILLOUIN|   453           0.00087       -0.30208       -0.07292        0.00000
 BRILLOUIN|   454           0.00087       -0.30208       -0.05208        0.00000
 BRILLOUIN|   455           0.00087       -0.30208       -0.03125        0.00000
 BRILLOUIN|   456           0.00087       -0.30208       -0.01042        0.00000
 BRILLOUIN|   457           0.00087       -0.30208        0.01042        0.00000
 BRILLOUIN|   458           0.00087       -0.30208        0.03125        0.00000
 BRILLOUIN|   459           0.00087       -0.30208        0.05208        0.00000
 BRILLOUIN|   460           0.00087       -0.30208        0.07292        0.00000
 BRILLOUIN|   461           0.00087       -0.30208        0.09375        0.00000
 BRILLOUIN|   462           0.00087       -0.30208        0.11458        0.00000
 BRILLOUIN|   463           0.00087       -0.30208        0.13542        0.00000
 BRILLOUIN|   464           0.00087       -0.30208        0.15625        0.00000
 BRILLOUIN|   465           0.00087       -0.30208        0.17708        0.00000
 BRILLOUIN|   466           0.00087       -0.30208        0.19792        0.00000
 BRILLOUIN|   467           0.00087       -0.30208        0.21875        0.00000
 BRILLOUIN|   468           0.00087       -0.30208        0.23958        0.00000
 BRILLOUIN|   469           0.00087       -0.30208        0.26042        0.00000
 BRILLOUIN|   470           0.00087       -0.30208        0.28125        0.00000
 BRILLOUIN|   471           0.00087       -0.30208        0.30208        0.00000
 BRILLOUIN|   472           0.00087       -0.30208        0.32292        0.00000
 BRILLOUIN|   473           0.00087       -0.30208        0.34375        0.00000
 BRILLOUIN|   474           0.00087       -0.30208        0.36458        0.00000
 BRILLOUIN|   475           0.00087       -0.30208        0.38542        0.00000
 BRILLOUIN|   476           0.00087       -0.30208        0.40625        0.00000
 BRILLOUIN|   477           0.00087       -0.30208        0.42708        0.00000
 BRILLOUIN|   478           0.00087       -0.30208        0.44792        0.00000
 BRILLOUIN|   479           0.00087       -0.30208        0.46875        0.00000
 BRILLOUIN|   480           0.00087       -0.30208        0.48958        0.00000
 BRILLOUIN|   481           0.00087       -0.28125       -0.48958        0.00000
 BRILLOUIN|   482           0.00087       -0.28125       -0.46875        0.00000
 BRILLOUIN|   483           0.00087       -0.28125       -0.44792        0.00000
 BRILLOUIN|   484           0.00087       -0.28125       -0.42708        0.00000
 BRILLOUIN|   485           0.00087       -0.28125       -0.40625        0.00000
 BRILLOUIN|   486           0.00087       -0.28125       -0.38542        0.00000
 BRILLOUIN|   487           0.00087       -0.28125       -0.36458        0.00000
 BRILLOUIN|   488           0.00087       -0.28125       -0.34375        0.00000
 BRILLOUIN|   489           0.00087       -0.28125       -0.32292        0.00000
 BRILLOUIN|   490           0.00087       -0.28125       -0.30208        0.00000
 BRILLOUIN|   491           0.00087       -0.28125       -0.28125        0.00000
 BRILLOUIN|   492           0.00087       -0.28125       -0.26042        0.00000
 BRILLOUIN|   493           0.00087       -0.28125       -0.23958        0.00000
 BRILLOUIN|   494           0.00087       -0.28125       -0.21875        0.00000
 BRILLOUIN|   495           0.00087       -0.28125       -0.19792        0.00000
 BRILLOUIN|   496           0.00087       -0.28125       -0.17708        0.00000
 BRILLOUIN|   497           0.00087       -0.28125       -0.15625        0.00000
 BRILLOUIN|   498           0.00087       -0.28125       -0.13542        0.00000
 BRILLOUIN|   499           0.00087       -0.28125       -0.11458        0.00000
 BRILLOUIN|   500           0.00087       -0.28125       -0.09375        0.00000
 BRILLOUIN|   501           0.00087       -0.28125       -0.07292        0.00000
 BRILLOUIN|   502           0.00087       -0.28125       -0.05208        0.00000
 BRILLOUIN|   503           0.00087       -0.28125       -0.03125        0.00000
 BRILLOUIN|   504           0.00087       -0.28125       -0.01042        0.00000
 BRILLOUIN|   505           0.00087       -0.28125        0.01042        0.00000
 BRILLOUIN|   506           0.00087       -0.28125        0.03125        0.00000
 BRILLOUIN|   507           0.00087       -0.28125        0.05208        0.00000
 BRILLOUIN|   508           0.00087       -0.28125        0.07292        0.00000
 BRILLOUIN|   509           0.00087       -0.28125        0.09375        0.00000
 BRILLOUIN|   510           0.00087       -0.28125        0.11458        0.00000
 BRILLOUIN|   511           0.00087       -0.28125        0.13542        0.00000
 BRILLOUIN|   512           0.00087       -0.28125        0.15625        0.00000
 BRILLOUIN|   513           0.00087       -0.28125        0.17708        0.00000
 BRILLOUIN|   514           0.00087       -0.28125        0.19792        0.00000
 BRILLOUIN|   515           0.00087       -0.28125        0.21875        0.00000
 BRILLOUIN|   516           0.00087       -0.28125        0.23958        0.00000
 BRILLOUIN|   517           0.00087       -0.28125        0.26042        0.00000
 BRILLOUIN|   518           0.00087       -0.28125        0.28125        0.00000
 BRILLOUIN|   519           0.00087       -0.28125        0.30208        0.00000
 BRILLOUIN|   520           0.00087       -0.28125        0.32292        0.00000
 BRILLOUIN|   521           0.00087       -0.28125        0.34375        0.00000
 BRILLOUIN|   522           0.00087       -0.28125        0.36458        0.00000
 BRILLOUIN|   523           0.00087       -0.28125        0.38542        0.00000
 BRILLOUIN|   524           0.00087       -0.28125        0.40625        0.00000
 BRILLOUIN|   525           0.00087       -0.28125        0.42708        0.00000
 BRILLOUIN|   526           0.00087       -0.28125        0.44792        0.00000
 BRILLOUIN|   527           0.00087       -0.28125        0.46875        0.00000
 BRILLOUIN|   528           0.00087       -0.28125        0.48958        0.00000
 BRILLOUIN|   529           0.00087       -0.26042       -0.48958        0.00000
 BRILLOUIN|   530           0.00087       -0.26042       -0.46875        0.00000
 BRILLOUIN|   531           0.00087       -0.26042       -0.44792        0.00000
 BRILLOUIN|   532           0.00087       -0.26042       -0.42708        0.00000
 BRILLOUIN|   533           0.00087       -0.26042       -0.40625        0.00000
 BRILLOUIN|   534           0.00087       -0.26042       -0.38542        0.00000
 BRILLOUIN|   535           0.00087       -0.26042       -0.36458        0.00000
 BRILLOUIN|   536           0.00087       -0.26042       -0.34375        0.00000
 BRILLOUIN|   537           0.00087       -0.26042       -0.32292        0.00000
 BRILLOUIN|   538           0.00087       -0.26042       -0.30208        0.00000
 BRILLOUIN|   539           0.00087       -0.26042       -0.28125        0.00000
 BRILLOUIN|   540           0.00087       -0.26042       -0.26042        0.00000
 BRILLOUIN|   541           0.00087       -0.26042       -0.23958        0.00000
 BRILLOUIN|   542           0.00087       -0.26042       -0.21875        0.00000
 BRILLOUIN|   543           0.00087       -0.26042       -0.19792        0.00000
 BRILLOUIN|   544           0.00087       -0.26042       -0.17708        0.00000
 BRILLOUIN|   545           0.00087       -0.26042       -0.15625        0.00000
 BRILLOUIN|   546           0.00087       -0.26042       -0.13542        0.00000
 BRILLOUIN|   547           0.00087       -0.26042       -0.11458        0.00000
 BRILLOUIN|   548           0.00087       -0.26042       -0.09375        0.00000
 BRILLOUIN|   549           0.00087       -0.26042       -0.07292        0.00000
 BRILLOUIN|   550           0.00087       -0.26042       -0.05208        0.00000
 BRILLOUIN|   551           0.00087       -0.26042       -0.03125        0.00000
 BRILLOUIN|   552           0.00087       -0.26042       -0.01042        0.00000
 BRILLOUIN|   553           0.00087       -0.26042        0.01042        0.00000
 BRILLOUIN|   554           0.00087       -0.26042        0.03125        0.00000
 BRILLOUIN|   555           0.00087       -0.26042        0.05208        0.00000
 BRILLOUIN|   556           0.00087       -0.26042        0.07292        0.00000
 BRILLOUIN|   557           0.00087       -0.26042        0.09375        0.00000
 BRILLOUIN|   558           0.00087       -0.26042        0.11458        0.00000
 BRILLOUIN|   559           0.00087       -0.26042        0.13542        0.00000
 BRILLOUIN|   560           0.00087       -0.26042        0.15625        0.00000
 BRILLOUIN|   561           0.00087       -0.26042        0.17708        0.00000
 BRILLOUIN|   562           0.00087       -0.26042        0.19792        0.00000
 BRILLOUIN|   563           0.00087       -0.26042        0.21875        0.00000
 BRILLOUIN|   564           0.00087       -0.26042        0.23958        0.00000
 BRILLOUIN|   565           0.00087       -0.26042        0.26042        0.00000
 BRILLOUIN|   566           0.00087       -0.26042        0.28125        0.00000
 BRILLOUIN|   567           0.00087       -0.26042        0.30208        0.00000
 BRILLOUIN|   568           0.00087       -0.26042        0.32292        0.00000
 BRILLOUIN|   569           0.00087       -0.26042        0.34375        0.00000
 BRILLOUIN|   570           0.00087       -0.26042        0.36458        0.00000
 BRILLOUIN|   571           0.00087       -0.26042        0.38542        0.00000
 BRILLOUIN|   572           0.00087       -0.26042        0.40625        0.00000
 BRILLOUIN|   573           0.00087       -0.26042        0.42708        0.00000
 BRILLOUIN|   574           0.00087       -0.26042        0.44792        0.00000
 BRILLOUIN|   575           0.00087       -0.26042        0.46875        0.00000
 BRILLOUIN|   576           0.00087       -0.26042        0.48958        0.00000
 BRILLOUIN|   577           0.00087       -0.23958       -0.48958        0.00000
 BRILLOUIN|   578           0.00087       -0.23958       -0.46875        0.00000
 BRILLOUIN|   579           0.00087       -0.23958       -0.44792        0.00000
 BRILLOUIN|   580           0.00087       -0.23958       -0.42708        0.00000
 BRILLOUIN|   581           0.00087       -0.23958       -0.40625        0.00000
 BRILLOUIN|   582           0.00087       -0.23958       -0.38542        0.00000
 BRILLOUIN|   583           0.00087       -0.23958       -0.36458        0.00000
 BRILLOUIN|   584           0.00087       -0.23958       -0.34375        0.00000
 BRILLOUIN|   585           0.00087       -0.23958       -0.32292        0.00000
 BRILLOUIN|   586           0.00087       -0.23958       -0.30208        0.00000
 BRILLOUIN|   587           0.00087       -0.23958       -0.28125        0.00000
 BRILLOUIN|   588           0.00087       -0.23958       -0.26042        0.00000
 BRILLOUIN|   589           0.00087       -0.23958       -0.23958        0.00000
 BRILLOUIN|   590           0.00087       -0.23958       -0.21875        0.00000
 BRILLOUIN|   591           0.00087       -0.23958       -0.19792        0.00000
 BRILLOUIN|   592           0.00087       -0.23958       -0.17708        0.00000
 BRILLOUIN|   593           0.00087       -0.23958       -0.15625        0.00000
 BRILLOUIN|   594           0.00087       -0.23958       -0.13542        0.00000
 BRILLOUIN|   595           0.00087       -0.23958       -0.11458        0.00000
 BRILLOUIN|   596           0.00087       -0.23958       -0.09375        0.00000
 BRILLOUIN|   597           0.00087       -0.23958       -0.07292        0.00000
 BRILLOUIN|   598           0.00087       -0.23958       -0.05208        0.00000
 BRILLOUIN|   599           0.00087       -0.23958       -0.03125        0.00000
 BRILLOUIN|   600           0.00087       -0.23958       -0.01042        0.00000
 BRILLOUIN|   601           0.00087       -0.23958        0.01042        0.00000
 BRILLOUIN|   602           0.00087       -0.23958        0.03125        0.00000
 BRILLOUIN|   603           0.00087       -0.23958        0.05208        0.00000
 BRILLOUIN|   604           0.00087       -0.23958        0.07292        0.00000
 BRILLOUIN|   605           0.00087       -0.23958        0.09375        0.00000
 BRILLOUIN|   606           0.00087       -0.23958        0.11458        0.00000
 BRILLOUIN|   607           0.00087       -0.23958        0.13542        0.00000
 BRILLOUIN|   608           0.00087       -0.23958        0.15625        0.00000
 BRILLOUIN|   609           0.00087       -0.23958        0.17708        0.00000
 BRILLOUIN|   610           0.00087       -0.23958        0.19792        0.00000
 BRILLOUIN|   611           0.00087       -0.23958        0.21875        0.00000
 BRILLOUIN|   612           0.00087       -0.23958        0.23958        0.00000
 BRILLOUIN|   613           0.00087       -0.23958        0.26042        0.00000
 BRILLOUIN|   614           0.00087       -0.23958        0.28125        0.00000
 BRILLOUIN|   615           0.00087       -0.23958        0.30208        0.00000
 BRILLOUIN|   616           0.00087       -0.23958        0.32292        0.00000
 BRILLOUIN|   617           0.00087       -0.23958        0.34375        0.00000
 BRILLOUIN|   618           0.00087       -0.23958        0.36458        0.00000
 BRILLOUIN|   619           0.00087       -0.23958        0.38542        0.00000
 BRILLOUIN|   620           0.00087       -0.23958        0.40625        0.00000
 BRILLOUIN|   621           0.00087       -0.23958        0.42708        0.00000
 BRILLOUIN|   622           0.00087       -0.23958        0.44792        0.00000
 BRILLOUIN|   623           0.00087       -0.23958        0.46875        0.00000
 BRILLOUIN|   624           0.00087       -0.23958        0.48958        0.00000
 BRILLOUIN|   625           0.00087       -0.21875       -0.48958        0.00000
 BRILLOUIN|   626           0.00087       -0.21875       -0.46875        0.00000
 BRILLOUIN|   627           0.00087       -0.21875       -0.44792        0.00000
 BRILLOUIN|   628           0.00087       -0.21875       -0.42708        0.00000
 BRILLOUIN|   629           0.00087       -0.21875       -0.40625        0.00000
 BRILLOUIN|   630           0.00087       -0.21875       -0.38542        0.00000
 BRILLOUIN|   631           0.00087       -0.21875       -0.36458        0.00000
 BRILLOUIN|   632           0.00087       -0.21875       -0.34375        0.00000
 BRILLOUIN|   633           0.00087       -0.21875       -0.32292        0.00000
 BRILLOUIN|   634           0.00087       -0.21875       -0.30208        0.00000
 BRILLOUIN|   635           0.00087       -0.21875       -0.28125        0.00000
 BRILLOUIN|   636           0.00087       -0.21875       -0.26042        0.00000
 BRILLOUIN|   637           0.00087       -0.21875       -0.23958        0.00000
 BRILLOUIN|   638           0.00087       -0.21875       -0.21875        0.00000
 BRILLOUIN|   639           0.00087       -0.21875       -0.19792        0.00000
 BRILLOUIN|   640           0.00087       -0.21875       -0.17708        0.00000
 BRILLOUIN|   641           0.00087       -0.21875       -0.15625        0.00000
 BRILLOUIN|   642           0.00087       -0.21875       -0.13542        0.00000
 BRILLOUIN|   643           0.00087       -0.21875       -0.11458        0.00000
 BRILLOUIN|   644           0.00087       -0.21875       -0.09375        0.00000
 BRILLOUIN|   645           0.00087       -0.21875       -0.07292        0.00000
 BRILLOUIN|   646           0.00087       -0.21875       -0.05208        0.00000
 BRILLOUIN|   647           0.00087       -0.21875       -0.03125        0.00000
 BRILLOUIN|   648           0.00087       -0.21875       -0.01042        0.00000
 BRILLOUIN|   649           0.00087       -0.21875        0.01042        0.00000
 BRILLOUIN|   650           0.00087       -0.21875        0.03125        0.00000
 BRILLOUIN|   651           0.00087       -0.21875        0.05208        0.00000
 BRILLOUIN|   652           0.00087       -0.21875        0.07292        0.00000
 BRILLOUIN|   653           0.00087       -0.21875        0.09375        0.00000
 BRILLOUIN|   654           0.00087       -0.21875        0.11458        0.00000
 BRILLOUIN|   655           0.00087       -0.21875        0.13542        0.00000
 BRILLOUIN|   656           0.00087       -0.21875        0.15625        0.00000
 BRILLOUIN|   657           0.00087       -0.21875        0.17708        0.00000
 BRILLOUIN|   658           0.00087       -0.21875        0.19792        0.00000
 BRILLOUIN|   659           0.00087       -0.21875        0.21875        0.00000
 BRILLOUIN|   660           0.00087       -0.21875        0.23958        0.00000
 BRILLOUIN|   661           0.00087       -0.21875        0.26042        0.00000
 BRILLOUIN|   662           0.00087       -0.21875        0.28125        0.00000
 BRILLOUIN|   663           0.00087       -0.21875        0.30208        0.00000
 BRILLOUIN|   664           0.00087       -0.21875        0.32292        0.00000
 BRILLOUIN|   665           0.00087       -0.21875        0.34375        0.00000
 BRILLOUIN|   666           0.00087       -0.21875        0.36458        0.00000
 BRILLOUIN|   667           0.00087       -0.21875        0.38542        0.00000
 BRILLOUIN|   668           0.00087       -0.21875        0.40625        0.00000
 BRILLOUIN|   669           0.00087       -0.21875        0.42708        0.00000
 BRILLOUIN|   670           0.00087       -0.21875        0.44792        0.00000
 BRILLOUIN|   671           0.00087       -0.21875        0.46875        0.00000
 BRILLOUIN|   672           0.00087       -0.21875        0.48958        0.00000
 BRILLOUIN|   673           0.00087       -0.19792       -0.48958        0.00000
 BRILLOUIN|   674           0.00087       -0.19792       -0.46875        0.00000
 BRILLOUIN|   675           0.00087       -0.19792       -0.44792        0.00000
 BRILLOUIN|   676           0.00087       -0.19792       -0.42708        0.00000
 BRILLOUIN|   677           0.00087       -0.19792       -0.40625        0.00000
 BRILLOUIN|   678           0.00087       -0.19792       -0.38542        0.00000
 BRILLOUIN|   679           0.00087       -0.19792       -0.36458        0.00000
 BRILLOUIN|   680           0.00087       -0.19792       -0.34375        0.00000
 BRILLOUIN|   681           0.00087       -0.19792       -0.32292        0.00000
 BRILLOUIN|   682           0.00087       -0.19792       -0.30208        0.00000
 BRILLOUIN|   683           0.00087       -0.19792       -0.28125        0.00000
 BRILLOUIN|   684           0.00087       -0.19792       -0.26042        0.00000
 BRILLOUIN|   685           0.00087       -0.19792       -0.23958        0.00000
 BRILLOUIN|   686           0.00087       -0.19792       -0.21875        0.00000
 BRILLOUIN|   687           0.00087       -0.19792       -0.19792        0.00000
 BRILLOUIN|   688           0.00087       -0.19792       -0.17708        0.00000
 BRILLOUIN|   689           0.00087       -0.19792       -0.15625        0.00000
 BRILLOUIN|   690           0.00087       -0.19792       -0.13542        0.00000
 BRILLOUIN|   691           0.00087       -0.19792       -0.11458        0.00000
 BRILLOUIN|   692           0.00087       -0.19792       -0.09375        0.00000
 BRILLOUIN|   693           0.00087       -0.19792       -0.07292        0.00000
 BRILLOUIN|   694           0.00087       -0.19792       -0.05208        0.00000
 BRILLOUIN|   695           0.00087       -0.19792       -0.03125        0.00000
 BRILLOUIN|   696           0.00087       -0.19792       -0.01042        0.00000
 BRILLOUIN|   697           0.00087       -0.19792        0.01042        0.00000
 BRILLOUIN|   698           0.00087       -0.19792        0.03125        0.00000
 BRILLOUIN|   699           0.00087       -0.19792        0.05208        0.00000
 BRILLOUIN|   700           0.00087       -0.19792        0.07292        0.00000
 BRILLOUIN|   701           0.00087       -0.19792        0.09375        0.00000
 BRILLOUIN|   702           0.00087       -0.19792        0.11458        0.00000
 BRILLOUIN|   703           0.00087       -0.19792        0.13542        0.00000
 BRILLOUIN|   704           0.00087       -0.19792        0.15625        0.00000
 BRILLOUIN|   705           0.00087       -0.19792        0.17708        0.00000
 BRILLOUIN|   706           0.00087       -0.19792        0.19792        0.00000
 BRILLOUIN|   707           0.00087       -0.19792        0.21875        0.00000
 BRILLOUIN|   708           0.00087       -0.19792        0.23958        0.00000
 BRILLOUIN|   709           0.00087       -0.19792        0.26042        0.00000
 BRILLOUIN|   710           0.00087       -0.19792        0.28125        0.00000
 BRILLOUIN|   711           0.00087       -0.19792        0.30208        0.00000
 BRILLOUIN|   712           0.00087       -0.19792        0.32292        0.00000
 BRILLOUIN|   713           0.00087       -0.19792        0.34375        0.00000
 BRILLOUIN|   714           0.00087       -0.19792        0.36458        0.00000
 BRILLOUIN|   715           0.00087       -0.19792        0.38542        0.00000
 BRILLOUIN|   716           0.00087       -0.19792        0.40625        0.00000
 BRILLOUIN|   717           0.00087       -0.19792        0.42708        0.00000
 BRILLOUIN|   718           0.00087       -0.19792        0.44792        0.00000
 BRILLOUIN|   719           0.00087       -0.19792        0.46875        0.00000
 BRILLOUIN|   720           0.00087       -0.19792        0.48958        0.00000
 BRILLOUIN|   721           0.00087       -0.17708       -0.48958        0.00000
 BRILLOUIN|   722           0.00087       -0.17708       -0.46875        0.00000
 BRILLOUIN|   723           0.00087       -0.17708       -0.44792        0.00000
 BRILLOUIN|   724           0.00087       -0.17708       -0.42708        0.00000
 BRILLOUIN|   725           0.00087       -0.17708       -0.40625        0.00000
 BRILLOUIN|   726           0.00087       -0.17708       -0.38542        0.00000
 BRILLOUIN|   727           0.00087       -0.17708       -0.36458        0.00000
 BRILLOUIN|   728           0.00087       -0.17708       -0.34375        0.00000
 BRILLOUIN|   729           0.00087       -0.17708       -0.32292        0.00000
 BRILLOUIN|   730           0.00087       -0.17708       -0.30208        0.00000
 BRILLOUIN|   731           0.00087       -0.17708       -0.28125        0.00000
 BRILLOUIN|   732           0.00087       -0.17708       -0.26042        0.00000
 BRILLOUIN|   733           0.00087       -0.17708       -0.23958        0.00000
 BRILLOUIN|   734           0.00087       -0.17708       -0.21875        0.00000
 BRILLOUIN|   735           0.00087       -0.17708       -0.19792        0.00000
 BRILLOUIN|   736           0.00087       -0.17708       -0.17708        0.00000
 BRILLOUIN|   737           0.00087       -0.17708       -0.15625        0.00000
 BRILLOUIN|   738           0.00087       -0.17708       -0.13542        0.00000
 BRILLOUIN|   739           0.00087       -0.17708       -0.11458        0.00000
 BRILLOUIN|   740           0.00087       -0.17708       -0.09375        0.00000
 BRILLOUIN|   741           0.00087       -0.17708       -0.07292        0.00000
 BRILLOUIN|   742           0.00087       -0.17708       -0.05208        0.00000
 BRILLOUIN|   743           0.00087       -0.17708       -0.03125        0.00000
 BRILLOUIN|   744           0.00087       -0.17708       -0.01042        0.00000
 BRILLOUIN|   745           0.00087       -0.17708        0.01042        0.00000
 BRILLOUIN|   746           0.00087       -0.17708        0.03125        0.00000
 BRILLOUIN|   747           0.00087       -0.17708        0.05208        0.00000
 BRILLOUIN|   748           0.00087       -0.17708        0.07292        0.00000
 BRILLOUIN|   749           0.00087       -0.17708        0.09375        0.00000
 BRILLOUIN|   750           0.00087       -0.17708        0.11458        0.00000
 BRILLOUIN|   751           0.00087       -0.17708        0.13542        0.00000
 BRILLOUIN|   752           0.00087       -0.17708        0.15625        0.00000
 BRILLOUIN|   753           0.00087       -0.17708        0.17708        0.00000
 BRILLOUIN|   754           0.00087       -0.17708        0.19792        0.00000
 BRILLOUIN|   755           0.00087       -0.17708        0.21875        0.00000
 BRILLOUIN|   756           0.00087       -0.17708        0.23958        0.00000
 BRILLOUIN|   757           0.00087       -0.17708        0.26042        0.00000
 BRILLOUIN|   758           0.00087       -0.17708        0.28125        0.00000
 BRILLOUIN|   759           0.00087       -0.17708        0.30208        0.00000
 BRILLOUIN|   760           0.00087       -0.17708        0.32292        0.00000
 BRILLOUIN|   761           0.00087       -0.17708        0.34375        0.00000
 BRILLOUIN|   762           0.00087       -0.17708        0.36458        0.00000
 BRILLOUIN|   763           0.00087       -0.17708        0.38542        0.00000
 BRILLOUIN|   764           0.00087       -0.17708        0.40625        0.00000
 BRILLOUIN|   765           0.00087       -0.17708        0.42708        0.00000
 BRILLOUIN|   766           0.00087       -0.17708        0.44792        0.00000
 BRILLOUIN|   767           0.00087       -0.17708        0.46875        0.00000
 BRILLOUIN|   768           0.00087       -0.17708        0.48958        0.00000
 BRILLOUIN|   769           0.00087       -0.15625       -0.48958        0.00000
 BRILLOUIN|   770           0.00087       -0.15625       -0.46875        0.00000
 BRILLOUIN|   771           0.00087       -0.15625       -0.44792        0.00000
 BRILLOUIN|   772           0.00087       -0.15625       -0.42708        0.00000
 BRILLOUIN|   773           0.00087       -0.15625       -0.40625        0.00000
 BRILLOUIN|   774           0.00087       -0.15625       -0.38542        0.00000
 BRILLOUIN|   775           0.00087       -0.15625       -0.36458        0.00000
 BRILLOUIN|   776           0.00087       -0.15625       -0.34375        0.00000
 BRILLOUIN|   777           0.00087       -0.15625       -0.32292        0.00000
 BRILLOUIN|   778           0.00087       -0.15625       -0.30208        0.00000
 BRILLOUIN|   779           0.00087       -0.15625       -0.28125        0.00000
 BRILLOUIN|   780           0.00087       -0.15625       -0.26042        0.00000
 BRILLOUIN|   781           0.00087       -0.15625       -0.23958        0.00000
 BRILLOUIN|   782           0.00087       -0.15625       -0.21875        0.00000
 BRILLOUIN|   783           0.00087       -0.15625       -0.19792        0.00000
 BRILLOUIN|   784           0.00087       -0.15625       -0.17708        0.00000
 BRILLOUIN|   785           0.00087       -0.15625       -0.15625        0.00000
 BRILLOUIN|   786           0.00087       -0.15625       -0.13542        0.00000
 BRILLOUIN|   787           0.00087       -0.15625       -0.11458        0.00000
 BRILLOUIN|   788           0.00087       -0.15625       -0.09375        0.00000
 BRILLOUIN|   789           0.00087       -0.15625       -0.07292        0.00000
 BRILLOUIN|   790           0.00087       -0.15625       -0.05208        0.00000
 BRILLOUIN|   791           0.00087       -0.15625       -0.03125        0.00000
 BRILLOUIN|   792           0.00087       -0.15625       -0.01042        0.00000
 BRILLOUIN|   793           0.00087       -0.15625        0.01042        0.00000
 BRILLOUIN|   794           0.00087       -0.15625        0.03125        0.00000
 BRILLOUIN|   795           0.00087       -0.15625        0.05208        0.00000
 BRILLOUIN|   796           0.00087       -0.15625        0.07292        0.00000
 BRILLOUIN|   797           0.00087       -0.15625        0.09375        0.00000
 BRILLOUIN|   798           0.00087       -0.15625        0.11458        0.00000
 BRILLOUIN|   799           0.00087       -0.15625        0.13542        0.00000
 BRILLOUIN|   800           0.00087       -0.15625        0.15625        0.00000
 BRILLOUIN|   801           0.00087       -0.15625        0.17708        0.00000
 BRILLOUIN|   802           0.00087       -0.15625        0.19792        0.00000
 BRILLOUIN|   803           0.00087       -0.15625        0.21875        0.00000
 BRILLOUIN|   804           0.00087       -0.15625        0.23958        0.00000
 BRILLOUIN|   805           0.00087       -0.15625        0.26042        0.00000
 BRILLOUIN|   806           0.00087       -0.15625        0.28125        0.00000
 BRILLOUIN|   807           0.00087       -0.15625        0.30208        0.00000
 BRILLOUIN|   808           0.00087       -0.15625        0.32292        0.00000
 BRILLOUIN|   809           0.00087       -0.15625        0.34375        0.00000
 BRILLOUIN|   810           0.00087       -0.15625        0.36458        0.00000
 BRILLOUIN|   811           0.00087       -0.15625        0.38542        0.00000
 BRILLOUIN|   812           0.00087       -0.15625        0.40625        0.00000
 BRILLOUIN|   813           0.00087       -0.15625        0.42708        0.00000
 BRILLOUIN|   814           0.00087       -0.15625        0.44792        0.00000
 BRILLOUIN|   815           0.00087       -0.15625        0.46875        0.00000
 BRILLOUIN|   816           0.00087       -0.15625        0.48958        0.00000
 BRILLOUIN|   817           0.00087       -0.13542       -0.48958        0.00000
 BRILLOUIN|   818           0.00087       -0.13542       -0.46875        0.00000
 BRILLOUIN|   819           0.00087       -0.13542       -0.44792        0.00000
 BRILLOUIN|   820           0.00087       -0.13542       -0.42708        0.00000
 BRILLOUIN|   821           0.00087       -0.13542       -0.40625        0.00000
 BRILLOUIN|   822           0.00087       -0.13542       -0.38542        0.00000
 BRILLOUIN|   823           0.00087       -0.13542       -0.36458        0.00000
 BRILLOUIN|   824           0.00087       -0.13542       -0.34375        0.00000
 BRILLOUIN|   825           0.00087       -0.13542       -0.32292        0.00000
 BRILLOUIN|   826           0.00087       -0.13542       -0.30208        0.00000
 BRILLOUIN|   827           0.00087       -0.13542       -0.28125        0.00000
 BRILLOUIN|   828           0.00087       -0.13542       -0.26042        0.00000
 BRILLOUIN|   829           0.00087       -0.13542       -0.23958        0.00000
 BRILLOUIN|   830           0.00087       -0.13542       -0.21875        0.00000
 BRILLOUIN|   831           0.00087       -0.13542       -0.19792        0.00000
 BRILLOUIN|   832           0.00087       -0.13542       -0.17708        0.00000
 BRILLOUIN|   833           0.00087       -0.13542       -0.15625        0.00000
 BRILLOUIN|   834           0.00087       -0.13542       -0.13542        0.00000
 BRILLOUIN|   835           0.00087       -0.13542       -0.11458        0.00000
 BRILLOUIN|   836           0.00087       -0.13542       -0.09375        0.00000
 BRILLOUIN|   837           0.00087       -0.13542       -0.07292        0.00000
 BRILLOUIN|   838           0.00087       -0.13542       -0.05208        0.00000
 BRILLOUIN|   839           0.00087       -0.13542       -0.03125        0.00000
 BRILLOUIN|   840           0.00087       -0.13542       -0.01042        0.00000
 BRILLOUIN|   841           0.00087       -0.13542        0.01042        0.00000
 BRILLOUIN|   842           0.00087       -0.13542        0.03125        0.00000
 BRILLOUIN|   843           0.00087       -0.13542        0.05208        0.00000
 BRILLOUIN|   844           0.00087       -0.13542        0.07292        0.00000
 BRILLOUIN|   845           0.00087       -0.13542        0.09375        0.00000
 BRILLOUIN|   846           0.00087       -0.13542        0.11458        0.00000
 BRILLOUIN|   847           0.00087       -0.13542        0.13542        0.00000
 BRILLOUIN|   848           0.00087       -0.13542        0.15625        0.00000
 BRILLOUIN|   849           0.00087       -0.13542        0.17708        0.00000
 BRILLOUIN|   850           0.00087       -0.13542        0.19792        0.00000
 BRILLOUIN|   851           0.00087       -0.13542        0.21875        0.00000
 BRILLOUIN|   852           0.00087       -0.13542        0.23958        0.00000
 BRILLOUIN|   853           0.00087       -0.13542        0.26042        0.00000
 BRILLOUIN|   854           0.00087       -0.13542        0.28125        0.00000
 BRILLOUIN|   855           0.00087       -0.13542        0.30208        0.00000
 BRILLOUIN|   856           0.00087       -0.13542        0.32292        0.00000
 BRILLOUIN|   857           0.00087       -0.13542        0.34375        0.00000
 BRILLOUIN|   858           0.00087       -0.13542        0.36458        0.00000
 BRILLOUIN|   859           0.00087       -0.13542        0.38542        0.00000
 BRILLOUIN|   860           0.00087       -0.13542        0.40625        0.00000
 BRILLOUIN|   861           0.00087       -0.13542        0.42708        0.00000
 BRILLOUIN|   862           0.00087       -0.13542        0.44792        0.00000
 BRILLOUIN|   863           0.00087       -0.13542        0.46875        0.00000
 BRILLOUIN|   864           0.00087       -0.13542        0.48958        0.00000
 BRILLOUIN|   865           0.00087       -0.11458       -0.48958        0.00000
 BRILLOUIN|   866           0.00087       -0.11458       -0.46875        0.00000
 BRILLOUIN|   867           0.00087       -0.11458       -0.44792        0.00000
 BRILLOUIN|   868           0.00087       -0.11458       -0.42708        0.00000
 BRILLOUIN|   869           0.00087       -0.11458       -0.40625        0.00000
 BRILLOUIN|   870           0.00087       -0.11458       -0.38542        0.00000
 BRILLOUIN|   871           0.00087       -0.11458       -0.36458        0.00000
 BRILLOUIN|   872           0.00087       -0.11458       -0.34375        0.00000
 BRILLOUIN|   873           0.00087       -0.11458       -0.32292        0.00000
 BRILLOUIN|   874           0.00087       -0.11458       -0.30208        0.00000
 BRILLOUIN|   875           0.00087       -0.11458       -0.28125        0.00000
 BRILLOUIN|   876           0.00087       -0.11458       -0.26042        0.00000
 BRILLOUIN|   877           0.00087       -0.11458       -0.23958        0.00000
 BRILLOUIN|   878           0.00087       -0.11458       -0.21875        0.00000
 BRILLOUIN|   879           0.00087       -0.11458       -0.19792        0.00000
 BRILLOUIN|   880           0.00087       -0.11458       -0.17708        0.00000
 BRILLOUIN|   881           0.00087       -0.11458       -0.15625        0.00000
 BRILLOUIN|   882           0.00087       -0.11458       -0.13542        0.00000
 BRILLOUIN|   883           0.00087       -0.11458       -0.11458        0.00000
 BRILLOUIN|   884           0.00087       -0.11458       -0.09375        0.00000
 BRILLOUIN|   885           0.00087       -0.11458       -0.07292        0.00000
 BRILLOUIN|   886           0.00087       -0.11458       -0.05208        0.00000
 BRILLOUIN|   887           0.00087       -0.11458       -0.03125        0.00000
 BRILLOUIN|   888           0.00087       -0.11458       -0.01042        0.00000
 BRILLOUIN|   889           0.00087       -0.11458        0.01042        0.00000
 BRILLOUIN|   890           0.00087       -0.11458        0.03125        0.00000
 BRILLOUIN|   891           0.00087       -0.11458        0.05208        0.00000
 BRILLOUIN|   892           0.00087       -0.11458        0.07292        0.00000
 BRILLOUIN|   893           0.00087       -0.11458        0.09375        0.00000
 BRILLOUIN|   894           0.00087       -0.11458        0.11458        0.00000
 BRILLOUIN|   895           0.00087       -0.11458        0.13542        0.00000
 BRILLOUIN|   896           0.00087       -0.11458        0.15625        0.00000
 BRILLOUIN|   897           0.00087       -0.11458        0.17708        0.00000
 BRILLOUIN|   898           0.00087       -0.11458        0.19792        0.00000
 BRILLOUIN|   899           0.00087       -0.11458        0.21875        0.00000
 BRILLOUIN|   900           0.00087       -0.11458        0.23958        0.00000
 BRILLOUIN|   901           0.00087       -0.11458        0.26042        0.00000
 BRILLOUIN|   902           0.00087       -0.11458        0.28125        0.00000
 BRILLOUIN|   903           0.00087       -0.11458        0.30208        0.00000
 BRILLOUIN|   904           0.00087       -0.11458        0.32292        0.00000
 BRILLOUIN|   905           0.00087       -0.11458        0.34375        0.00000
 BRILLOUIN|   906           0.00087       -0.11458        0.36458        0.00000
 BRILLOUIN|   907           0.00087       -0.11458        0.38542        0.00000
 BRILLOUIN|   908           0.00087       -0.11458        0.40625        0.00000
 BRILLOUIN|   909           0.00087       -0.11458        0.42708        0.00000
 BRILLOUIN|   910           0.00087       -0.11458        0.44792        0.00000
 BRILLOUIN|   911           0.00087       -0.11458        0.46875        0.00000
 BRILLOUIN|   912           0.00087       -0.11458        0.48958        0.00000
 BRILLOUIN|   913           0.00087       -0.09375       -0.48958        0.00000
 BRILLOUIN|   914           0.00087       -0.09375       -0.46875        0.00000
 BRILLOUIN|   915           0.00087       -0.09375       -0.44792        0.00000
 BRILLOUIN|   916           0.00087       -0.09375       -0.42708        0.00000
 BRILLOUIN|   917           0.00087       -0.09375       -0.40625        0.00000
 BRILLOUIN|   918           0.00087       -0.09375       -0.38542        0.00000
 BRILLOUIN|   919           0.00087       -0.09375       -0.36458        0.00000
 BRILLOUIN|   920           0.00087       -0.09375       -0.34375        0.00000
 BRILLOUIN|   921           0.00087       -0.09375       -0.32292        0.00000
 BRILLOUIN|   922           0.00087       -0.09375       -0.30208        0.00000
 BRILLOUIN|   923           0.00087       -0.09375       -0.28125        0.00000
 BRILLOUIN|   924           0.00087       -0.09375       -0.26042        0.00000
 BRILLOUIN|   925           0.00087       -0.09375       -0.23958        0.00000
 BRILLOUIN|   926           0.00087       -0.09375       -0.21875        0.00000
 BRILLOUIN|   927           0.00087       -0.09375       -0.19792        0.00000
 BRILLOUIN|   928           0.00087       -0.09375       -0.17708        0.00000
 BRILLOUIN|   929           0.00087       -0.09375       -0.15625        0.00000
 BRILLOUIN|   930           0.00087       -0.09375       -0.13542        0.00000
 BRILLOUIN|   931           0.00087       -0.09375       -0.11458        0.00000
 BRILLOUIN|   932           0.00087       -0.09375       -0.09375        0.00000
 BRILLOUIN|   933           0.00087       -0.09375       -0.07292        0.00000
 BRILLOUIN|   934           0.00087       -0.09375       -0.05208        0.00000
 BRILLOUIN|   935           0.00087       -0.09375       -0.03125        0.00000
 BRILLOUIN|   936           0.00087       -0.09375       -0.01042        0.00000
 BRILLOUIN|   937           0.00087       -0.09375        0.01042        0.00000
 BRILLOUIN|   938           0.00087       -0.09375        0.03125        0.00000
 BRILLOUIN|   939           0.00087       -0.09375        0.05208        0.00000
 BRILLOUIN|   940           0.00087       -0.09375        0.07292        0.00000
 BRILLOUIN|   941           0.00087       -0.09375        0.09375        0.00000
 BRILLOUIN|   942           0.00087       -0.09375        0.11458        0.00000
 BRILLOUIN|   943           0.00087       -0.09375        0.13542        0.00000
 BRILLOUIN|   944           0.00087       -0.09375        0.15625        0.00000
 BRILLOUIN|   945           0.00087       -0.09375        0.17708        0.00000
 BRILLOUIN|   946           0.00087       -0.09375        0.19792        0.00000
 BRILLOUIN|   947           0.00087       -0.09375        0.21875        0.00000
 BRILLOUIN|   948           0.00087       -0.09375        0.23958        0.00000
 BRILLOUIN|   949           0.00087       -0.09375        0.26042        0.00000
 BRILLOUIN|   950           0.00087       -0.09375        0.28125        0.00000
 BRILLOUIN|   951           0.00087       -0.09375        0.30208        0.00000
 BRILLOUIN|   952           0.00087       -0.09375        0.32292        0.00000
 BRILLOUIN|   953           0.00087       -0.09375        0.34375        0.00000
 BRILLOUIN|   954           0.00087       -0.09375        0.36458        0.00000
 BRILLOUIN|   955           0.00087       -0.09375        0.38542        0.00000
 BRILLOUIN|   956           0.00087       -0.09375        0.40625        0.00000
 BRILLOUIN|   957           0.00087       -0.09375        0.42708        0.00000
 BRILLOUIN|   958           0.00087       -0.09375        0.44792        0.00000
 BRILLOUIN|   959           0.00087       -0.09375        0.46875        0.00000
 BRILLOUIN|   960           0.00087       -0.09375        0.48958        0.00000
 BRILLOUIN|   961           0.00087       -0.07292       -0.48958        0.00000
 BRILLOUIN|   962           0.00087       -0.07292       -0.46875        0.00000
 BRILLOUIN|   963           0.00087       -0.07292       -0.44792        0.00000
 BRILLOUIN|   964           0.00087       -0.07292       -0.42708        0.00000
 BRILLOUIN|   965           0.00087       -0.07292       -0.40625        0.00000
 BRILLOUIN|   966           0.00087       -0.07292       -0.38542        0.00000
 BRILLOUIN|   967           0.00087       -0.07292       -0.36458        0.00000
 BRILLOUIN|   968           0.00087       -0.07292       -0.34375        0.00000
 BRILLOUIN|   969           0.00087       -0.07292       -0.32292        0.00000
 BRILLOUIN|   970           0.00087       -0.07292       -0.30208        0.00000
 BRILLOUIN|   971           0.00087       -0.07292       -0.28125        0.00000
 BRILLOUIN|   972           0.00087       -0.07292       -0.26042        0.00000
 BRILLOUIN|   973           0.00087       -0.07292       -0.23958        0.00000
 BRILLOUIN|   974           0.00087       -0.07292       -0.21875        0.00000
 BRILLOUIN|   975           0.00087       -0.07292       -0.19792        0.00000
 BRILLOUIN|   976           0.00087       -0.07292       -0.17708        0.00000
 BRILLOUIN|   977           0.00087       -0.07292       -0.15625        0.00000
 BRILLOUIN|   978           0.00087       -0.07292       -0.13542        0.00000
 BRILLOUIN|   979           0.00087       -0.07292       -0.11458        0.00000
 BRILLOUIN|   980           0.00087       -0.07292       -0.09375        0.00000
 BRILLOUIN|   981           0.00087       -0.07292       -0.07292        0.00000
 BRILLOUIN|   982           0.00087       -0.07292       -0.05208        0.00000
 BRILLOUIN|   983           0.00087       -0.07292       -0.03125        0.00000
 BRILLOUIN|   984           0.00087       -0.07292       -0.01042        0.00000
 BRILLOUIN|   985           0.00087       -0.07292        0.01042        0.00000
 BRILLOUIN|   986           0.00087       -0.07292        0.03125        0.00000
 BRILLOUIN|   987           0.00087       -0.07292        0.05208        0.00000
 BRILLOUIN|   988           0.00087       -0.07292        0.07292        0.00000
 BRILLOUIN|   989           0.00087       -0.07292        0.09375        0.00000
 BRILLOUIN|   990           0.00087       -0.07292        0.11458        0.00000
 BRILLOUIN|   991           0.00087       -0.07292        0.13542        0.00000
 BRILLOUIN|   992           0.00087       -0.07292        0.15625        0.00000
 BRILLOUIN|   993           0.00087       -0.07292        0.17708        0.00000
 BRILLOUIN|   994           0.00087       -0.07292        0.19792        0.00000
 BRILLOUIN|   995           0.00087       -0.07292        0.21875        0.00000
 BRILLOUIN|   996           0.00087       -0.07292        0.23958        0.00000
 BRILLOUIN|   997           0.00087       -0.07292        0.26042        0.00000
 BRILLOUIN|   998           0.00087       -0.07292        0.28125        0.00000
 BRILLOUIN|   999           0.00087       -0.07292        0.30208        0.00000
 BRILLOUIN|  1000           0.00087       -0.07292        0.32292        0.00000
 BRILLOUIN|  1001           0.00087       -0.07292        0.34375        0.00000
 BRILLOUIN|  1002           0.00087       -0.07292        0.36458        0.00000
 BRILLOUIN|  1003           0.00087       -0.07292        0.38542        0.00000
 BRILLOUIN|  1004           0.00087       -0.07292        0.40625        0.00000
 BRILLOUIN|  1005           0.00087       -0.07292        0.42708        0.00000
 BRILLOUIN|  1006           0.00087       -0.07292        0.44792        0.00000
 BRILLOUIN|  1007           0.00087       -0.07292        0.46875        0.00000
 BRILLOUIN|  1008           0.00087       -0.07292        0.48958        0.00000
 BRILLOUIN|  1009           0.00087       -0.05208       -0.48958        0.00000
 BRILLOUIN|  1010           0.00087       -0.05208       -0.46875        0.00000
 BRILLOUIN|  1011           0.00087       -0.05208       -0.44792        0.00000
 BRILLOUIN|  1012           0.00087       -0.05208       -0.42708        0.00000
 BRILLOUIN|  1013           0.00087       -0.05208       -0.40625        0.00000
 BRILLOUIN|  1014           0.00087       -0.05208       -0.38542        0.00000
 BRILLOUIN|  1015           0.00087       -0.05208       -0.36458        0.00000
 BRILLOUIN|  1016           0.00087       -0.05208       -0.34375        0.00000
 BRILLOUIN|  1017           0.00087       -0.05208       -0.32292        0.00000
 BRILLOUIN|  1018           0.00087       -0.05208       -0.30208        0.00000
 BRILLOUIN|  1019           0.00087       -0.05208       -0.28125        0.00000
 BRILLOUIN|  1020           0.00087       -0.05208       -0.26042        0.00000
 BRILLOUIN|  1021           0.00087       -0.05208       -0.23958        0.00000
 BRILLOUIN|  1022           0.00087       -0.05208       -0.21875        0.00000
 BRILLOUIN|  1023           0.00087       -0.05208       -0.19792        0.00000
 BRILLOUIN|  1024           0.00087       -0.05208       -0.17708        0.00000
 BRILLOUIN|  1025           0.00087       -0.05208       -0.15625        0.00000
 BRILLOUIN|  1026           0.00087       -0.05208       -0.13542        0.00000
 BRILLOUIN|  1027           0.00087       -0.05208       -0.11458        0.00000
 BRILLOUIN|  1028           0.00087       -0.05208       -0.09375        0.00000
 BRILLOUIN|  1029           0.00087       -0.05208       -0.07292        0.00000
 BRILLOUIN|  1030           0.00087       -0.05208       -0.05208        0.00000
 BRILLOUIN|  1031           0.00087       -0.05208       -0.03125        0.00000
 BRILLOUIN|  1032           0.00087       -0.05208       -0.01042        0.00000
 BRILLOUIN|  1033           0.00087       -0.05208        0.01042        0.00000
 BRILLOUIN|  1034           0.00087       -0.05208        0.03125        0.00000
 BRILLOUIN|  1035           0.00087       -0.05208        0.05208        0.00000
 BRILLOUIN|  1036           0.00087       -0.05208        0.07292        0.00000
 BRILLOUIN|  1037           0.00087       -0.05208        0.09375        0.00000
 BRILLOUIN|  1038           0.00087       -0.05208        0.11458        0.00000
 BRILLOUIN|  1039           0.00087       -0.05208        0.13542        0.00000
 BRILLOUIN|  1040           0.00087       -0.05208        0.15625        0.00000
 BRILLOUIN|  1041           0.00087       -0.05208        0.17708        0.00000
 BRILLOUIN|  1042           0.00087       -0.05208        0.19792        0.00000
 BRILLOUIN|  1043           0.00087       -0.05208        0.21875        0.00000
 BRILLOUIN|  1044           0.00087       -0.05208        0.23958        0.00000
 BRILLOUIN|  1045           0.00087       -0.05208        0.26042        0.00000
 BRILLOUIN|  1046           0.00087       -0.05208        0.28125        0.00000
 BRILLOUIN|  1047           0.00087       -0.05208        0.30208        0.00000
 BRILLOUIN|  1048           0.00087       -0.05208        0.32292        0.00000
 BRILLOUIN|  1049           0.00087       -0.05208        0.34375        0.00000
 BRILLOUIN|  1050           0.00087       -0.05208        0.36458        0.00000
 BRILLOUIN|  1051           0.00087       -0.05208        0.38542        0.00000
 BRILLOUIN|  1052           0.00087       -0.05208        0.40625        0.00000
 BRILLOUIN|  1053           0.00087       -0.05208        0.42708        0.00000
 BRILLOUIN|  1054           0.00087       -0.05208        0.44792        0.00000
 BRILLOUIN|  1055           0.00087       -0.05208        0.46875        0.00000
 BRILLOUIN|  1056           0.00087       -0.05208        0.48958        0.00000
 BRILLOUIN|  1057           0.00087       -0.03125       -0.48958        0.00000
 BRILLOUIN|  1058           0.00087       -0.03125       -0.46875        0.00000
 BRILLOUIN|  1059           0.00087       -0.03125       -0.44792        0.00000
 BRILLOUIN|  1060           0.00087       -0.03125       -0.42708        0.00000
 BRILLOUIN|  1061           0.00087       -0.03125       -0.40625        0.00000
 BRILLOUIN|  1062           0.00087       -0.03125       -0.38542        0.00000
 BRILLOUIN|  1063           0.00087       -0.03125       -0.36458        0.00000
 BRILLOUIN|  1064           0.00087       -0.03125       -0.34375        0.00000
 BRILLOUIN|  1065           0.00087       -0.03125       -0.32292        0.00000
 BRILLOUIN|  1066           0.00087       -0.03125       -0.30208        0.00000
 BRILLOUIN|  1067           0.00087       -0.03125       -0.28125        0.00000
 BRILLOUIN|  1068           0.00087       -0.03125       -0.26042        0.00000
 BRILLOUIN|  1069           0.00087       -0.03125       -0.23958        0.00000
 BRILLOUIN|  1070           0.00087       -0.03125       -0.21875        0.00000
 BRILLOUIN|  1071           0.00087       -0.03125       -0.19792        0.00000
 BRILLOUIN|  1072           0.00087       -0.03125       -0.17708        0.00000
 BRILLOUIN|  1073           0.00087       -0.03125       -0.15625        0.00000
 BRILLOUIN|  1074           0.00087       -0.03125       -0.13542        0.00000
 BRILLOUIN|  1075           0.00087       -0.03125       -0.11458        0.00000
 BRILLOUIN|  1076           0.00087       -0.03125       -0.09375        0.00000
 BRILLOUIN|  1077           0.00087       -0.03125       -0.07292        0.00000
 BRILLOUIN|  1078           0.00087       -0.03125       -0.05208        0.00000
 BRILLOUIN|  1079           0.00087       -0.03125       -0.03125        0.00000
 BRILLOUIN|  1080           0.00087       -0.03125       -0.01042        0.00000
 BRILLOUIN|  1081           0.00087       -0.03125        0.01042        0.00000
 BRILLOUIN|  1082           0.00087       -0.03125        0.03125        0.00000
 BRILLOUIN|  1083           0.00087       -0.03125        0.05208        0.00000
 BRILLOUIN|  1084           0.00087       -0.03125        0.07292        0.00000
 BRILLOUIN|  1085           0.00087       -0.03125        0.09375        0.00000
 BRILLOUIN|  1086           0.00087       -0.03125        0.11458        0.00000
 BRILLOUIN|  1087           0.00087       -0.03125        0.13542        0.00000
 BRILLOUIN|  1088           0.00087       -0.03125        0.15625        0.00000
 BRILLOUIN|  1089           0.00087       -0.03125        0.17708        0.00000
 BRILLOUIN|  1090           0.00087       -0.03125        0.19792        0.00000
 BRILLOUIN|  1091           0.00087       -0.03125        0.21875        0.00000
 BRILLOUIN|  1092           0.00087       -0.03125        0.23958        0.00000
 BRILLOUIN|  1093           0.00087       -0.03125        0.26042        0.00000
 BRILLOUIN|  1094           0.00087       -0.03125        0.28125        0.00000
 BRILLOUIN|  1095           0.00087       -0.03125        0.30208        0.00000
 BRILLOUIN|  1096           0.00087       -0.03125        0.32292        0.00000
 BRILLOUIN|  1097           0.00087       -0.03125        0.34375        0.00000
 BRILLOUIN|  1098           0.00087       -0.03125        0.36458        0.00000
 BRILLOUIN|  1099           0.00087       -0.03125        0.38542        0.00000
 BRILLOUIN|  1100           0.00087       -0.03125        0.40625        0.00000
 BRILLOUIN|  1101           0.00087       -0.03125        0.42708        0.00000
 BRILLOUIN|  1102           0.00087       -0.03125        0.44792        0.00000
 BRILLOUIN|  1103           0.00087       -0.03125        0.46875        0.00000
 BRILLOUIN|  1104           0.00087       -0.03125        0.48958        0.00000
 BRILLOUIN|  1105           0.00087       -0.01042       -0.48958        0.00000
 BRILLOUIN|  1106           0.00087       -0.01042       -0.46875        0.00000
 BRILLOUIN|  1107           0.00087       -0.01042       -0.44792        0.00000
 BRILLOUIN|  1108           0.00087       -0.01042       -0.42708        0.00000
 BRILLOUIN|  1109           0.00087       -0.01042       -0.40625        0.00000
 BRILLOUIN|  1110           0.00087       -0.01042       -0.38542        0.00000
 BRILLOUIN|  1111           0.00087       -0.01042       -0.36458        0.00000
 BRILLOUIN|  1112           0.00087       -0.01042       -0.34375        0.00000
 BRILLOUIN|  1113           0.00087       -0.01042       -0.32292        0.00000
 BRILLOUIN|  1114           0.00087       -0.01042       -0.30208        0.00000
 BRILLOUIN|  1115           0.00087       -0.01042       -0.28125        0.00000
 BRILLOUIN|  1116           0.00087       -0.01042       -0.26042        0.00000
 BRILLOUIN|  1117           0.00087       -0.01042       -0.23958        0.00000
 BRILLOUIN|  1118           0.00087       -0.01042       -0.21875        0.00000
 BRILLOUIN|  1119           0.00087       -0.01042       -0.19792        0.00000
 BRILLOUIN|  1120           0.00087       -0.01042       -0.17708        0.00000
 BRILLOUIN|  1121           0.00087       -0.01042       -0.15625        0.00000
 BRILLOUIN|  1122           0.00087       -0.01042       -0.13542        0.00000
 BRILLOUIN|  1123           0.00087       -0.01042       -0.11458        0.00000
 BRILLOUIN|  1124           0.00087       -0.01042       -0.09375        0.00000
 BRILLOUIN|  1125           0.00087       -0.01042       -0.07292        0.00000
 BRILLOUIN|  1126           0.00087       -0.01042       -0.05208        0.00000
 BRILLOUIN|  1127           0.00087       -0.01042       -0.03125        0.00000
 BRILLOUIN|  1128           0.00087       -0.01042       -0.01042        0.00000
 BRILLOUIN|  1129           0.00087       -0.01042        0.01042        0.00000
 BRILLOUIN|  1130           0.00087       -0.01042        0.03125        0.00000
 BRILLOUIN|  1131           0.00087       -0.01042        0.05208        0.00000
 BRILLOUIN|  1132           0.00087       -0.01042        0.07292        0.00000
 BRILLOUIN|  1133           0.00087       -0.01042        0.09375        0.00000
 BRILLOUIN|  1134           0.00087       -0.01042        0.11458        0.00000
 BRILLOUIN|  1135           0.00087       -0.01042        0.13542        0.00000
 BRILLOUIN|  1136           0.00087       -0.01042        0.15625        0.00000
 BRILLOUIN|  1137           0.00087       -0.01042        0.17708        0.00000
 BRILLOUIN|  1138           0.00087       -0.01042        0.19792        0.00000
 BRILLOUIN|  1139           0.00087       -0.01042        0.21875        0.00000
 BRILLOUIN|  1140           0.00087       -0.01042        0.23958        0.00000
 BRILLOUIN|  1141           0.00087       -0.01042        0.26042        0.00000
 BRILLOUIN|  1142           0.00087       -0.01042        0.28125        0.00000
 BRILLOUIN|  1143           0.00087       -0.01042        0.30208        0.00000
 BRILLOUIN|  1144           0.00087       -0.01042        0.32292        0.00000
 BRILLOUIN|  1145           0.00087       -0.01042        0.34375        0.00000
 BRILLOUIN|  1146           0.00087       -0.01042        0.36458        0.00000
 BRILLOUIN|  1147           0.00087       -0.01042        0.38542        0.00000
 BRILLOUIN|  1148           0.00087       -0.01042        0.40625        0.00000
 BRILLOUIN|  1149           0.00087       -0.01042        0.42708        0.00000
 BRILLOUIN|  1150           0.00087       -0.01042        0.44792        0.00000
 BRILLOUIN|  1151           0.00087       -0.01042        0.46875        0.00000
 BRILLOUIN|  1152           0.00087       -0.01042        0.48958        0.00000
 *******************************************************************************

 *******************************************************************************
 *******************************************************************************
 **                                                                           **
 **     #####                         ##              ##                      **
 **    ##   ##            ##          ##              ##                      **
 **   ##     ##                       ##            ######                    **
 **   ##     ##  ##   ##  ##   #####  ##  ##   ####   ##    #####    #####    **
 **   ##     ##  ##   ##  ##  ##      ## ##   ##      ##   ##   ##  ##   ##   **
 **   ##  ## ##  ##   ##  ##  ##      ####     ###    ##   ######   ######    **
 **    ##  ###   ##   ##  ##  ##      ## ##      ##   ##   ##       ##        **
 **     #######   #####   ##   #####  ##  ##  ####    ##    #####   ##        **
 **           ##                                                    ##        **
 **                                                                           **
 **                                                ... make the atoms dance   **
 **                                                                           **
 **            Copyright (C) by CP2K developers group (2000-2025)             **
 **                      J. Chem. Phys. 152, 194103 (2020)                    **
 **                                                                           **
 *******************************************************************************

 DFT| Spin restricted Kohn-Sham (RKS) calculation                            RKS
 DFT| Multiplicity                                                             1
 DFT| Number of spin states                                                    1
 DFT| Charge                                                                   0
 DFT| Self-interaction correction (SIC)                                       NO
 DFT| Cutoffs: density                                              1.000000E-10
 DFT|          gradient                                             1.000000E-10
 DFT|          tau                                                  1.000000E-10
 DFT|          cutoff_smoothing_range                               0.000000E+00
 DFT| XC density smoothing                                                  NONE
 DFT| XC derivatives                                                          PW

 FUNCTIONAL| PBE:
 FUNCTIONAL| J.P.Perdew, K.Burke, M.Ernzerhof, Phys. Rev. Letter, vol. 77, n 18,
 FUNCTIONAL|  pp. 3865-3868, (1996) {spin unpolarized}                          


 QS| Method:                                                                 GPW
 QS| Density plane wave grid type                        NON-SPHERICAL FULLSPACE
 QS| Number of grid levels:                                                    4
 QS| Density cutoff [a.u.]:                                                500.0
 QS| Multi grid cutoff [a.u.]: 1) grid level                               500.0
 QS|                           2) grid level                               166.7
 QS|                           3) grid level                                55.6
 QS|                           4) grid level                                18.5
 QS| Grid level progression factor:                                          3.0
 QS| Relative density cutoff [a.u.]:                                        50.0
 QS| Interaction thresholds: eps_pgf_orb:                                1.0E-12
 QS|                         eps_filter_matrix:                          0.0E+00
 QS|                         eps_core_charge:                            1.0E-14
 QS|                         eps_rho_gspace:                             1.0E-12
 QS|                         eps_rho_rspace:                             1.0E-12
 QS|                         eps_gvg_rspace:                             1.0E-06
 QS|                         eps_ppl:                                    1.0E-02
 QS|                         eps_ppnl:                                   1.0E-08


 ATOMIC KIND INFORMATION

  1. Atomic kind: B                                     Number of atoms:       1

     Orbital Basis Set                                 aug-SZV-MOLOPT-GTH-tier-2

       Number of orbital shell sets:                                           1
       Number of orbital shells:                                               5
       Number of primitive Cartesian functions:                                5
       Number of Cartesian basis functions:                                   14
       Number of spherical basis functions:                                   13
       Norm type:                                                              2

       Normalised Cartesian orbitals:

                        Set   Shell   Orbital            Exponent    Coefficient

                          1       1    2s                0.070000       0.000000
                                                         0.101655      -0.057697
                                                         0.329920      -0.219689
                                                         0.915484       0.050494
                                                         3.053444       0.252403

                          1       2    3s                0.070000       0.096981
                                                         0.101655      -0.000080
                                                         0.329920       0.000294
                                                         0.915484       0.000161
                                                         3.053444       0.000000

                          1       3    3px               0.070000       0.000000
                                                         0.101655      -0.024010
                                                         0.329920      -0.182602
                                                         0.915484      -0.388731
                                                         3.053444      -0.570047
                          1       3    3py               0.070000       0.000000
                                                         0.101655      -0.024010
                                                         0.329920      -0.182602
                                                         0.915484      -0.388731
                                                         3.053444      -0.570047
                          1       3    3pz               0.070000       0.000000
                                                         0.101655      -0.024010
                                                         0.329920      -0.182602
                                                         0.915484      -0.388731
                                                         3.053444      -0.570047

                          1       4    4px               0.070000       0.057413
                                                         0.101655      -0.011874
                                                         0.329920       0.011088
                                                         0.915484       0.026429
                                                         3.053444       0.000000
                          1       4    4py               0.070000       0.057413
                                                         0.101655      -0.011874
                                                         0.329920       0.011088
                                                         0.915484       0.026429
                                                         3.053444       0.000000
                          1       4    4pz               0.070000       0.057413
                                                         0.101655      -0.011874
                                                         0.329920       0.011088
                                                         0.915484       0.026429
                                                         3.053444       0.000000

                          1       5    4dx2              0.070000       0.000071
                                                         0.101655       0.000150
                                                         0.329920       0.236125
                                                         0.915484      -0.007588
                                                         3.053444       0.000000
                          1       5    4dxy              0.070000       0.000123
                                                         0.101655       0.000260
                                                         0.329920       0.408980
                                                         0.915484      -0.013142
                                                         3.053444       0.000000
                          1       5    4dxz              0.070000       0.000123
                                                         0.101655       0.000260
                                                         0.329920       0.408980
                                                         0.915484      -0.013142
                                                         3.053444       0.000000
                          1       5    4dy2              0.070000       0.000071
                                                         0.101655       0.000150
                                                         0.329920       0.236125
                                                         0.915484      -0.007588
                                                         3.053444       0.000000
                          1       5    4dyz              0.070000       0.000123
                                                         0.101655       0.000260
                                                         0.329920       0.408980
                                                         0.915484      -0.013142
                                                         3.053444       0.000000
                          1       5    4dz2              0.070000       0.000071
                                                         0.101655       0.000150
                                                         0.329920       0.236125
                                                         0.915484      -0.007588
                                                         3.053444       0.000000

     RI Auxiliary Basis Set             RI_aug-SZV-MOLOPT-GTH-tier-2_N_RI_014_s_

       Number of orbital shell sets:                                           6
       Number of orbital shells:                                               6
       Number of primitive Cartesian functions:                                6
       Number of Cartesian basis functions:                                   15
       Number of spherical basis functions:                                   14
       Norm type:                                                              2

       Normalised Cartesian orbitals:

                        Set   Shell   Orbital            Exponent    Coefficient

                          1       1    1s                0.176183       0.193813

                          2       1    4px               0.190207       0.179049
                          2       1    4py               0.190207       0.179049
                          2       1    4pz               0.190207       0.179049

                          3       1    2s                0.494536       0.420299

                          4       1    6dx2              0.503217       0.494859
                          4       1    6dxy              0.503217       0.857120
                          4       1    6dxz              0.503217       0.857120
                          4       1    6dy2              0.503217       0.494859
                          4       1    6dyz              0.503217       0.857120
                          4       1    6dz2              0.503217       0.494859

                          5       1    5px               0.738822       0.976371
                          5       1    5py               0.738822       0.976371
                          5       1    5pz               0.738822       0.976371

                          6       1    3s                3.130453       1.677318

       Atomic covalent radius [Angstrom]:                                  0.820

       Atomic van der Waals radius [Angstrom]:                             1.920

     GTH Potential information for                                    GTH-PBE-q3

       Description:                       Goedecker-Teter-Hutter pseudopotential
                                           Goedecker et al., PRB 54, 1703 (1996)
                                          Hartwigsen et al., PRB 58, 3641 (1998)
                                                      Krack, TCA 114, 145 (2005)

       Gaussian exponent of the core charge distribution:               2.848129
       Electronic configuration (s p d ...):                               2   1

       Parameters of the local part of the GTH pseudopotential:

                          rloc        C1          C2          C3          C4
                        0.418991   -5.859462    0.903756

       Parameters of the non-local part of the GTH (SOC) pseudopotential:

                   l      r(l)      h(i,j,l)
                                    k(i,j,l)
                   0    0.371320    6.297280
                   1    0.364563    0.000000
                                    0.000855

  2. Atomic kind: N                                     Number of atoms:       1

     Orbital Basis Set                                 aug-SZV-MOLOPT-GTH-tier-2

       Number of orbital shell sets:                                           1
       Number of orbital shells:                                               5
       Number of primitive Cartesian functions:                                6
       Number of Cartesian basis functions:                                   14
       Number of spherical basis functions:                                   13
       Norm type:                                                              2

       Normalised Cartesian orbitals:

                        Set   Shell   Orbital            Exponent    Coefficient

                          1       1    2s                0.070000       0.000000
                                                         0.112012      -0.019197
                                                         0.333802      -0.182244
                                                         0.888575      -0.289383
                                                         2.542637       0.139177
                                                         7.341988       0.360561

                          1       2    3s                0.070000       0.092556
                                                         0.112012      -0.004523
                                                         0.333802       0.017208
                                                         0.888575       0.059493
                                                         2.542637       0.000000
                                                         7.341988       0.000000

                          1       3    3px               0.070000       0.000000
                                                         0.112012      -0.013986
                                                         0.333802      -0.144894
                                                         0.888575      -0.501079
                                                         2.542637      -0.973969
                                                         7.341988      -1.188719
                          1       3    3py               0.070000       0.000000
                                                         0.112012      -0.013986
                                                         0.333802      -0.144894
                                                         0.888575      -0.501079
                                                         2.542637      -0.973969
                                                         7.341988      -1.188719
                          1       3    3pz               0.070000       0.000000
                                                         0.112012      -0.013986
                                                         0.333802      -0.144894
                                                         0.888575      -0.501079
                                                         2.542637      -0.973969
                                                         7.341988      -1.188719

                          1       4    4px               0.070000       0.019777
                                                         0.112012       0.010521
                                                         0.333802       0.223757
                                                         0.888575       0.038703
                                                         2.542637       0.000000
                                                         7.341988       0.000000
                          1       4    4py               0.070000       0.019777
                                                         0.112012       0.010521
                                                         0.333802       0.223757
                                                         0.888575       0.038703
                                                         2.542637       0.000000
                                                         7.341988       0.000000
                          1       4    4pz               0.070000       0.019777
                                                         0.112012       0.010521
                                                         0.333802       0.223757
                                                         0.888575       0.038703
                                                         2.542637       0.000000
                                                         7.341988       0.000000

                          1       5    4dx2              0.070000       0.012523
                                                         0.112012      -0.007680
                                                         0.333802       0.106561
                                                         0.888575       0.393255
                                                         2.542637       0.000000
                                                         7.341988       0.000000
                          1       5    4dxy              0.070000       0.021691
                                                         0.112012      -0.013303
                                                         0.333802       0.184569
                                                         0.888575       0.681137
                                                         2.542637       0.000000
                                                         7.341988       0.000000
                          1       5    4dxz              0.070000       0.021691
                                                         0.112012      -0.013303
                                                         0.333802       0.184569
                                                         0.888575       0.681137
                                                         2.542637       0.000000
                                                         7.341988       0.000000
                          1       5    4dy2              0.070000       0.012523
                                                         0.112012      -0.007680
                                                         0.333802       0.106561
                                                         0.888575       0.393255
                                                         2.542637       0.000000
                                                         7.341988       0.000000
                          1       5    4dyz              0.070000       0.021691
                                                         0.112012      -0.013303
                                                         0.333802       0.184569
                                                         0.888575       0.681137
                                                         2.542637       0.000000
                                                         7.341988       0.000000
                          1       5    4dz2              0.070000       0.012523
                                                         0.112012      -0.007680
                                                         0.333802       0.106561
                                                         0.888575       0.393255
                                                         2.542637       0.000000
                                                         7.341988       0.000000

     RI Auxiliary Basis Set             RI_aug-SZV-MOLOPT-GTH-tier-2_N_RI_033_s_

       Number of orbital shell sets:                                          13
       Number of orbital shells:                                              13
       Number of primitive Cartesian functions:                               13
       Number of Cartesian basis functions:                                   38
       Number of spherical basis functions:                                   33
       Norm type:                                                              2

       Normalised Cartesian orbitals:

                        Set   Shell   Orbital            Exponent    Coefficient

                          1       1    8px               0.128755       0.109937
                          1       1    8py               0.128755       0.109937
                          1       1    8pz               0.128755       0.109937

                          2       1    1s                0.177993       0.195305

                          3       1    2s                0.352789       0.326247

                          4       1   11dx2              0.604085       0.681289
                          4       1   11dxy              0.604085       1.180027
                          4       1   11dxz              0.604085       1.180027
                          4       1   11dy2              0.604085       0.681289
                          4       1   11dyz              0.604085       1.180027
                          4       1   11dz2              0.604085       0.681289

                          5       1    9px               0.668095       0.860970
                          5       1    9py               0.668095       0.860970
                          5       1    9pz               0.668095       0.860970

                          6       1    3s                0.722621       0.558590

                          7       1   13fx3              1.003298       1.483105
                          7       1   13fx2y             1.003298       3.316324
                          7       1   13fx2z             1.003298       3.316324
                          7       1   13fxy2             1.003298       3.316324
                          7       1   13fxyz             1.003298       5.744042
                          7       1   13fxz2             1.003298       3.316324
                          7       1   13fy3              1.003298       1.483105
                          7       1   13fy2z             1.003298       3.316324
                          7       1   13fyz2             1.003298       3.316324
                          7       1   13fz3              1.003298       1.483105

                          8       1    4s                1.475569       0.954179

                          9       1   10px               1.864193       3.104944
                          9       1   10py               1.864193       3.104944
                          9       1   10pz               1.864193       3.104944

                         10       1    5s                2.970298       1.612539

                         11       1   12dx2              3.000284      11.257544
                         11       1   12dxy              3.000284      19.498638
                         11       1   12dxz              3.000284      19.498638
                         11       1   12dy2              3.000284      11.257544
                         11       1   12dyz              3.000284      19.498638
                         11       1   12dz2              3.000284      11.257544

                         12       1    6s                6.032716       2.743435

                         13       1    7s               12.241787       4.664378

       Atomic covalent radius [Angstrom]:                                  0.750

       Atomic van der Waals radius [Angstrom]:                             1.550

     GTH Potential information for                                    GTH-PBE-q5

       Description:                       Goedecker-Teter-Hutter pseudopotential
                                           Goedecker et al., PRB 54, 1703 (1996)
                                          Hartwigsen et al., PRB 58, 3641 (1998)
                                                      Krack, TCA 114, 145 (2005)

       Gaussian exponent of the core charge distribution:               6.208322
       Electronic configuration (s p d ...):                               2   3

       Parameters of the local part of the GTH pseudopotential:

                          rloc        C1          C2          C3          C4
                        0.283791  -12.415226    1.868096

       Parameters of the non-local part of the GTH (SOC) pseudopotential:

                   l      r(l)      h(i,j,l)
                                    k(i,j,l)
                   0    0.255405   13.630263
                   1    0.245495    0.000000
                                    0.004148


 MOLECULE KIND INFORMATION


 All atoms are their own molecule, skipping detailed information


 TOTAL NUMBERS AND MAXIMUM NUMBERS

  Total number of            - Atomic kinds:                                   2
                             - Atoms:                                          2
                             - Shell sets:                                     2
                             - Shells:                                        10
                             - Primitive Cartesian functions:                 11
                             - Cartesian basis functions:                     28
                             - Spherical basis functions:                     26

  Maximum angular momentum of- Orbital basis functions:                        2
                             - Local part of the GTH pseudopotential:          2
                             - Non-local part of the GTH pseudopotential:      1


 MODULE QUICKSTEP: ATOMIC COORDINATES IN ANGSTROM

   Atom Kind Element         X             Y             Z       Z(eff)     Mass
      1    1 B     5      0.000000      1.449303      6.000000   3.0000  10.8110
      2    2 N     7      1.255134      0.724652      6.000000   5.0000  14.0067



 SCF PARAMETERS         Density guess:                                    ATOMIC
                        --------------------------------------------------------
                        max_scf:                                             500
                        max_scf_history:                                       0
                        max_diis:                                              4
                        --------------------------------------------------------
                        eps_scf:                                        1.00E-09
                        eps_scf_history:                                0.00E+00
                        eps_diis:                                       1.00E-01
                        eps_eigval:                                     1.00E-05
                        --------------------------------------------------------
                        level_shift [a.u.]:                             0.000000
                        added MOs                                        22    0
                        --------------------------------------------------------
                        Mixing method:                            BROYDEN_MIXING
                                                charge density mixing in g-space
                        --------------------------------------------------------
                        No outer SCF

 PW_GRID| Information for grid number                                          1
 PW_GRID| Grid distributed over                                   128 processors
 PW_GRID| Real space group dimensions                                     8   16
 PW_GRID| the grid is blocked:                                               YES
 PW_GRID| Cutoff [a.u.]                                                    500.0
 PW_GRID| spherical cutoff:                                                   NO
 PW_GRID|   Bounds   1            -24      23                Points:          48
 PW_GRID|   Bounds   2            -24      23                Points:          48
 PW_GRID|   Bounds   3           -120     119                Points:         240
 PW_GRID| Volume element (a.u.^3)  0.7990E-03     Volume (a.u.^3)       441.8307
 PW_GRID| Grid span                                                    FULLSPACE
 PW_GRID|   Distribution                         Average         Max         Min
 PW_GRID|   G-Vectors                             4320.0        4320        4320
 PW_GRID|   G-Rays                                  90.0          90          90
 PW_GRID|   Real Space Points                     4320.0        4320        4320

 PW_GRID| Information for grid number                                          2
 PW_GRID| Number of the reference grid                                         1
 PW_GRID| Grid distributed over                                   128 processors
 PW_GRID| Real space group dimensions                                     8   16
 PW_GRID| the grid is blocked:                                                NO
 PW_GRID| Cutoff [a.u.]                                                    166.7
 PW_GRID| spherical cutoff:                                                   NO
 PW_GRID|   Bounds   1            -13      13                Points:          27
 PW_GRID|   Bounds   2            -13      13                Points:          27
 PW_GRID|   Bounds   3            -67      67                Points:         135
 PW_GRID| Volume element (a.u.^3)  0.4489E-02     Volume (a.u.^3)       441.8307
 PW_GRID| Grid span                                                    FULLSPACE
 PW_GRID|   Distribution                         Average         Max         Min
 PW_GRID|   G-Vectors                              768.9        2430           0
 PW_GRID|   G-Rays                                  28.5          90           0
 PW_GRID|   Real Space Points                      768.9        1080         405

 PW_GRID| Information for grid number                                          3
 PW_GRID| Number of the reference grid                                         1
 PW_GRID| Grid distributed over                                   128 processors
 PW_GRID| Real space group dimensions                                     8   16
 PW_GRID| the grid is blocked:                                                NO
 PW_GRID| Cutoff [a.u.]                                                     55.6
 PW_GRID| spherical cutoff:                                                   NO
 PW_GRID|   Bounds   1             -7       7                Points:          15
 PW_GRID|   Bounds   2             -7       7                Points:          15
 PW_GRID|   Bounds   3            -40      39                Points:          80
 PW_GRID| Volume element (a.u.^3)  0.2455E-01     Volume (a.u.^3)       441.8307
 PW_GRID| Grid span                                                    FULLSPACE
 PW_GRID|   Distribution                         Average         Max         Min
 PW_GRID|   G-Vectors                              140.6        1350           0
 PW_GRID|   G-Rays                                   9.4          90           0
 PW_GRID|   Real Space Points                      140.6         160           0

 PW_GRID| Information for grid number                                          4
 PW_GRID| Number of the reference grid                                         1
 PW_GRID| Grid distributed over                                   128 processors
 PW_GRID| Real space group dimensions                                     8   16
 PW_GRID| the grid is blocked:                                                NO
 PW_GRID| Cutoff [a.u.]                                                     18.5
 PW_GRID| spherical cutoff:                                                   NO
 PW_GRID|   Bounds   1             -4       4                Points:           9
 PW_GRID|   Bounds   2             -4       4                Points:           9
 PW_GRID|   Bounds   3            -22      22                Points:          45
 PW_GRID| Volume element (a.u.^3)  0.1212         Volume (a.u.^3)       441.8307
 PW_GRID| Grid span                                                    FULLSPACE
 PW_GRID|   Distribution                         Average         Max         Min
 PW_GRID|   G-Vectors                               28.5         675           0
 PW_GRID|   G-Rays                                   3.2          75           0
 PW_GRID|   Real Space Points                       28.5          90           0

 POISSON| Solver                                                        PERIODIC
 POISSON| Periodicity                                                        XYZ

 *** WARNING in pw_env_methods.F:746 :: The selected periodicities in the ***
 *** sections &CELL and &POISSON do not match                             ***


 RS_GRID| Information for grid number                                          1
 RS_GRID|   Bounds   1            -24      23                Points:          48
 RS_GRID|   Bounds   2            -24      23                Points:          48
 RS_GRID|   Bounds   3           -120     119                Points:         240
 RS_GRID| Real space distribution over                                128 groups
 RS_GRID| Real space distribution along direction                              3
 RS_GRID| Border size                                                         54
 RS_GRID|   Distribution                         Average         Max         Min
 RS_GRID|   Planes                                 109.9         110         109

 RS_GRID| Information for grid number                                          2
 RS_GRID|   Bounds   1            -13      13                Points:          27
 RS_GRID|   Bounds   2            -13      13                Points:          27
 RS_GRID|   Bounds   3            -67      67                Points:         135
 RS_GRID| Real space fully replicated
 RS_GRID| Group size                                                           1

 RS_GRID| Information for grid number                                          3
 RS_GRID|   Bounds   1             -7       7                Points:          15
 RS_GRID|   Bounds   2             -7       7                Points:          15
 RS_GRID|   Bounds   3            -40      39                Points:          80
 RS_GRID| Real space fully replicated
 RS_GRID| Group size                                                           1

 RS_GRID| Information for grid number                                          4
 RS_GRID|   Bounds   1             -4       4                Points:           9
 RS_GRID|   Bounds   2             -4       4                Points:           9
 RS_GRID|   Bounds   3            -22      22                Points:          45
 RS_GRID| Real space fully replicated
 RS_GRID| Group size                                                           1

 Extrapolation method: initial_guess

 Atomic guess: The first density matrix is obtained in terms of atomic orbitals
               and electronic configurations assigned to each atomic kind

 Guess for atomic kind: B

 Electronic structure
    Total number of core electrons                                          2.00
    Total number of valence electrons                                       3.00
    Total number of electrons                                               5.00
    Multiplicity                                                   not specified
    S   [  2.00] 2.00
    P      1.00


 *******************************************************************************
                  Iteration          Convergence                     Energy [au]
 *******************************************************************************
                          1        0.318287E-01                  -2.526530290476
                          2        0.130111E-01                  -2.527409258314
                          3        0.362461E-03                  -2.527664151253
                          4        0.212775E-07                  -2.527664329937

 Energy components [Hartree]           Total Energy ::           -2.527664329937
                                        Band Energy ::           -0.774157874948
                                     Kinetic Energy ::            1.432105792828
                                   Potential Energy ::           -3.959770122764
                                      Virial (-V/T) ::            2.764998328054
                                        Core Energy ::           -3.739058608706
                                          XC Energy ::           -0.778578427619
                                     Coulomb Energy ::            1.989972706388
                       Total Pseudopotential Energy ::           -5.202216582334
                       Local Pseudopotential Energy ::           -5.554780274858
                    Nonlocal Pseudopotential Energy ::            0.352563692524
                                        Confinement ::            0.310521808001

 Orbital energies  State     L     Occupation   Energy[a.u.]          Energy[eV]

                       1     0          2.000      -0.330590           -8.995816

                       1     1          1.000      -0.112978           -3.074276


 Total Electron Density at R=0:                                         0.000151

 Guess for atomic kind: N

 Electronic structure
    Total number of core electrons                                          2.00
    Total number of valence electrons                                       5.00
    Total number of electrons                                               7.00
    Multiplicity                                                   not specified
    S   [  2.00] 2.00
    P      3.00


 *******************************************************************************
                  Iteration          Convergence                     Energy [au]
 *******************************************************************************
                          1        0.279825                      -9.519702036083
                          2        0.203084                      -9.530037546193
                          3        0.554394E-03                  -9.542302744773
                          4        0.528449E-04                  -9.542302841836
                          5        0.297177E-04                  -9.542302842361
                          6        0.208869E-04                  -9.542302842484
                          7        0.550195E-07                  -9.542302842603

 Energy components [Hartree]           Total Energy ::           -9.542302842603
                                        Band Energy ::           -2.003604362155
                                     Kinetic Energy ::            6.761024631072
                                   Potential Energy ::          -16.303327473676
                                      Virial (-V/T) ::            2.411369335758
                                        Core Energy ::          -15.577117993880
                                          XC Energy ::           -2.176535633023
                                     Coulomb Energy ::            8.211350784299
                       Total Pseudopotential Energy ::          -22.374806510451
                       Local Pseudopotential Energy ::          -23.291549762728
                    Nonlocal Pseudopotential Energy ::            0.916743252277
                                        Confinement ::            0.366638854993

 Orbital energies  State     L     Occupation   Energy[a.u.]          Energy[eV]

                       1     0          2.000      -0.653124          -17.772414

                       1     1          3.000      -0.232452           -6.325340


 Total Electron Density at R=0:                                         0.000012
 Re-scaling the density matrix to get the right number of electrons
                  # Electrons              Trace(P)               Scaling factor
                            8                 8.000                        1.000

 Number of electrons:                                                          8
 Number of occupied orbitals:                                                  4
 Number of molecular orbitals:                                                26

 Number of orbital functions:                                                 26
 Number of independent orbital functions:                                     26


 SCF WAVEFUNCTION OPTIMIZATION

  Step     Update method      Time    Convergence         Total energy    Change
  ------------------------------------------------------------------------------
     1 NoMix/Diag. 0.10E+00    5.9     1.28173526       -12.8860238586 -1.29E+01
     2 Broy./Diag. 0.10E+00    5.7     0.06965649       -11.1675088328  1.72E+00
     3 Broy./Diag. 0.10E+00    5.7     0.39985339       -11.8675503853 -7.00E-01
     4 Broy./Diag. 0.10E+00    5.6     0.01904944       -12.5964781199 -7.29E-01
     5 Broy./Diag. 0.10E+00    6.2     0.13017684       -12.6883423025 -9.19E-02
     6 Broy./Diag. 0.10E+00    5.7     0.00574729       -12.7604746193 -7.21E-02
     7 Broy./Diag. 0.10E+00    5.8     0.04162133       -12.8046787314 -4.42E-02
     8 Broy./Diag. 0.10E+00    5.7     0.00322567       -12.8448766317 -4.02E-02
     9 Broy./Diag. 0.10E+00    5.6     0.02403214       -12.8481822574 -3.31E-03
    10 Broy./Diag. 0.10E+00    6.2     0.00097494       -12.8637520396 -1.56E-02
    11 Broy./Diag. 0.10E+00    5.7     0.01011310       -12.8578772856  5.87E-03
    12 Broy./Diag. 0.10E+00    5.9     0.00040656       -12.8606548283 -2.78E-03
    13 Broy./Diag. 0.10E+00    5.6     0.00353324       -12.8652433854 -4.59E-03
    14 Broy./Diag. 0.10E+00    5.6     0.00082047       -12.8671649279 -1.92E-03
    15 Broy./Diag. 0.10E+00    6.1     0.00076967       -12.8694311758 -2.27E-03
    16 Broy./Diag. 0.10E+00    5.8     0.00033133       -12.8702799900 -8.49E-04
    17 Broy./Diag. 0.10E+00    5.9     0.00105975       -12.8680615125  2.22E-03
    18 Broy./Diag. 0.10E+00    5.6     0.00024465       -12.8671822384  8.79E-04
    19 Broy./Diag. 0.10E+00    5.7     0.00035884       -12.8665660337  6.16E-04
    20 Broy./Diag. 0.10E+00    6.1     0.00026503       -12.8666541736 -8.81E-05
    21 Broy./Diag. 0.10E+00    5.7     0.00003485       -12.8667954151 -1.41E-04
    22 Broy./Diag. 0.10E+00    6.0     0.00015672       -12.8669906157 -1.95E-04
    23 Broy./Diag. 0.10E+00    5.7     0.00003559       -12.8670944248 -1.04E-04
    24 Broy./Diag. 0.10E+00    5.7     0.00016069       -12.8671457517 -5.13E-05
    25 Broy./Diag. 0.10E+00    6.0     0.00004941       -12.8669910125  1.55E-04
    26 Broy./Diag. 0.10E+00    6.0     0.00007675       -12.8668768186  1.14E-04
    27 Broy./Diag. 0.10E+00    6.0     0.00006275       -12.8669432919 -6.65E-05
    28 Broy./Diag. 0.10E+00    5.7     0.00004996       -12.8669390159  4.28E-06
    29 Broy./Diag. 0.10E+00    5.8     0.00003319       -12.8669089662  3.00E-05
    30 Broy./Diag. 0.10E+00    6.0     0.00002993       -12.8669084888  4.77E-07
    31 Broy./Diag. 0.10E+00    5.8     0.00001684       -12.8669496089 -4.11E-05
    32 Broy./Diag. 0.10E+00    5.9     0.00002096       -12.8669835765 -3.40E-05
    33 Broy./Diag. 0.10E+00    5.9     0.00001289       -12.8670193511 -3.58E-05
    34 Broy./Diag. 0.10E+00    5.6     0.00001802       -12.8670588979 -3.95E-05
    35 Broy./Diag. 0.10E+00    5.7     0.00001359       -12.8670403309  1.86E-05
    36 Broy./Diag. 0.10E+00    6.2     0.00001374       -12.8669761967  6.41E-05
    37 Broy./Diag. 0.10E+00    5.8     0.00002439       -12.8669742031  1.99E-06
    38 Broy./Diag. 0.10E+00    5.7     0.00000674       -12.8669984397 -2.42E-05
    39 Broy./Diag. 0.10E+00    5.7     0.00000913       -12.8670009980 -2.56E-06
    40 Broy./Diag. 0.10E+00    5.8     0.00000679       -12.8669966431  4.35E-06
    41 Broy./Diag. 0.10E+00    6.0     0.00000661       -12.8670058690 -9.23E-06
    42 Broy./Diag. 0.10E+00    6.0     0.00000405       -12.8670134563 -7.59E-06
    43 Broy./Diag. 0.10E+00    5.7     0.00000927       -12.8670234632 -1.00E-05
    44 Broy./Diag. 0.10E+00    5.7     0.00000234       -12.8670318274 -8.36E-06
    45 Broy./Diag. 0.10E+00    5.6     0.00000226       -12.8670268365  4.99E-06
    46 Broy./Diag. 0.10E+00    6.2     0.00000379       -12.8670110100  1.58E-05
    47 Broy./Diag. 0.10E+00    5.8     0.00000513       -12.8670035976  7.41E-06
    48 Broy./Diag. 0.10E+00    5.8     0.00000874       -12.8670136513 -1.01E-05
    49 Broy./Diag. 0.10E+00    5.7     0.00000402       -12.8670237700 -1.01E-05
    50 Broy./Diag. 0.10E+00    5.6     0.00000562       -12.8670178951  5.87E-06
    51 Broy./Diag. 0.10E+00    6.2     0.00000675       -12.8670190215 -1.13E-06
    52 Broy./Diag. 0.10E+00    5.7     0.00000390       -12.8670258035 -6.78E-06
    53 Broy./Diag. 0.10E+00    6.1     0.00000415       -12.8670286660 -2.86E-06
    54 Broy./Diag. 0.10E+00    5.6     0.00000276       -12.8670313951 -2.73E-06
    55 Broy./Diag. 0.10E+00    5.7     0.00000089       -12.8670324744 -1.08E-06
    56 Broy./Diag. 0.10E+00    6.3     0.00000289       -12.8670206102  1.19E-05
    57 Broy./Diag. 0.10E+00    5.9     0.00000176       -12.8670127672  7.84E-06
    58 Broy./Diag. 0.10E+00    5.9     0.00000152       -12.8670152081 -2.44E-06
    59 Broy./Diag. 0.10E+00    5.7     0.00000185       -12.8670188546 -3.65E-06
    60 Broy./Diag. 0.10E+00   11.1     0.00000209       -12.8670177014  1.15E-06
    61 Broy./Diag. 0.10E+00    5.8     0.00000069       -12.8670166728  1.03E-06
    62 Broy./Diag. 0.10E+00    5.9     0.00000175       -12.8670189208 -2.25E-06
    63 Broy./Diag. 0.10E+00    5.7     0.00000043       -12.8670200105 -1.09E-06
    64 Broy./Diag. 0.10E+00    5.7     0.00000046       -12.8670199695  4.10E-08
    65 Broy./Diag. 0.10E+00    6.0     0.00000042       -12.8670198702  9.93E-08
    66 Broy./Diag. 0.10E+00    6.0     0.00000044       -12.8670190220  8.48E-07
    67 Broy./Diag. 0.10E+00    5.9     0.00000046       -12.8670179747  1.05E-06
    68 Broy./Diag. 0.10E+00    5.7     0.00000062       -12.8670187005 -7.26E-07
    69 Broy./Diag. 0.10E+00    5.7     0.00000023       -12.8670202869 -1.59E-06
    70 Broy./Diag. 0.10E+00    5.9     0.00000092       -12.8670203254 -3.84E-08
    71 Broy./Diag. 0.10E+00    6.1     0.00000026       -12.8670191741  1.15E-06
    72 Broy./Diag. 0.10E+00    5.9     0.00000052       -12.8670192096 -3.55E-08
    73 Broy./Diag. 0.10E+00    5.8     0.00000034       -12.8670198394 -6.30E-07
    74 Broy./Diag. 0.10E+00    5.7     0.00000028       -12.8670197710  6.84E-08
    75 Broy./Diag. 0.10E+00    5.8     0.00000019       -12.8670196339  1.37E-07
    76 Broy./Diag. 0.10E+00    6.1     0.00000031       -12.8670194072  2.27E-07
    77 Broy./Diag. 0.10E+00    5.9     0.00000015       -12.8670188728  5.34E-07
    78 Broy./Diag. 0.10E+00    5.7     0.00000025       -12.8670190545 -1.82E-07
    79 Broy./Diag. 0.10E+00    5.7     0.00000019       -12.8670201023 -1.05E-06
    80 Broy./Diag. 0.10E+00    5.8     0.00000035       -12.8670203567 -2.54E-07
    81 Broy./Diag. 0.10E+00    6.1     0.00000040       -12.8670196834  6.73E-07
    82 Broy./Diag. 0.10E+00    5.9     0.00000013       -12.8670191191  5.64E-07
    83 Broy./Diag. 0.10E+00    5.7     0.00000033       -12.8670193946 -2.76E-07
    84 Broy./Diag. 0.10E+00    5.8     0.00000013       -12.8670195500 -1.55E-07
    85 Broy./Diag. 0.10E+00    5.7     0.00000007       -12.8670194721  7.79E-08
    86 Broy./Diag. 0.10E+00    6.3     0.00000008       -12.8670193960  7.60E-08
    87 Broy./Diag. 0.10E+00    5.9     0.00000004       -12.8670193786  1.75E-08
    88 Broy./Diag. 0.10E+00    5.8     0.00000002       -12.8670193399  3.86E-08
    89 Broy./Diag. 0.10E+00    5.8     0.00000005       -12.8670194944 -1.54E-07
    90 Broy./Diag. 0.10E+00    5.7     0.00000004       -12.8670196583 -1.64E-07
    91 Broy./Diag. 0.10E+00    6.3     0.00000009       -12.8670195998  5.85E-08
    92 Broy./Diag. 0.10E+00    5.8     0.00000002       -12.8670194774  1.22E-07
    93 Broy./Diag. 0.10E+00    6.0     0.00000008       -12.8670195259 -4.85E-08
    94 Broy./Diag. 0.10E+00    5.7     0.00000003       -12.8670195827 -5.68E-08
    95 Broy./Diag. 0.10E+00    5.8     0.00000004       -12.8670195609  2.17E-08
    96 Broy./Diag. 0.10E+00    6.1     0.00000001       -12.8670195388  2.22E-08
    97 Broy./Diag. 0.10E+00    5.8     0.00000002       -12.8670195173  2.15E-08
    98 Broy./Diag. 0.10E+00    6.0     0.00000001       -12.8670194908  2.65E-08
    99 Broy./Diag. 0.10E+00    5.7     0.00000002       -12.8670195437 -5.29E-08
   100 Broy./Diag. 0.10E+00    5.7     0.00000002       -12.8670196391 -9.55E-08
   101 Broy./Diag. 0.10E+00    6.2     0.00000002       -12.8670196572 -1.81E-08
   102 Broy./Diag. 0.10E+00    5.8     0.00000003       -12.8670196032  5.40E-08
   103 Broy./Diag. 0.10E+00    6.1     0.00000004       -12.8670195709  3.23E-08
   104 Broy./Diag. 0.10E+00    5.7     0.00000004       -12.8670196240 -5.31E-08
   105 Broy./Diag. 0.10E+00    5.8     0.00000003       -12.8670196246 -5.65E-10
   106 Broy./Diag. 0.10E+00    6.2     0.00000001       -12.8670195907  3.39E-08
   107 Broy./Diag. 0.10E+00    5.8     0.00000002       -12.8670195761  1.46E-08
   108 Broy./Diag. 0.10E+00    6.1     9.8974E-09       -12.8670195631  1.30E-08
   109 Broy./Diag. 0.10E+00    5.8     0.00000001       -12.8670195598  3.31E-09
   110 Broy./Diag. 0.10E+00    5.6     0.00000001       -12.8670196094 -4.96E-08
   111 Broy./Diag. 0.10E+00    6.1     8.1555E-09       -12.8670196239 -1.45E-08
   112 Broy./Diag. 0.10E+00    5.8     0.00000001       -12.8670195903  3.37E-08
   113 Broy./Diag. 0.10E+00    6.0     0.00000002       -12.8670195720  1.82E-08
   114 Broy./Diag. 0.10E+00    5.7     0.00000002       -12.8670195853 -1.33E-08
   115 Broy./Diag. 0.10E+00    5.6     5.4631E-09       -12.8670195934 -8.08E-09
   116 Broy./Diag. 0.10E+00    6.4     9.4790E-09       -12.8670195802  1.32E-08
   117 Broy./Diag. 0.10E+00    5.8     3.2541E-09       -12.8670195720  8.14E-09
   118 Broy./Diag. 0.10E+00    6.1     3.2092E-09       -12.8670195697  2.28E-09
   119 Broy./Diag. 0.10E+00    5.7     4.0833E-09       -12.8670195658  3.94E-09
   120 Broy./Diag. 0.10E+00    5.6     2.5982E-09       -12.8670195701 -4.30E-09
   121 Broy./Diag. 0.10E+00    6.4     3.3359E-09       -12.8670195756 -5.47E-09
   122 Broy./Diag. 0.10E+00    5.8     4.5771E-09       -12.8670195653  1.03E-08
   123 Broy./Diag. 0.10E+00    6.1     2.3397E-09       -12.8670195529  1.24E-08
   124 Broy./Diag. 0.10E+00    5.7     7.8656E-09       -12.8670195553 -2.38E-09
   125 Broy./Diag. 0.10E+00    5.8     2.3850E-09       -12.8670195631 -7.83E-09
   126 Broy./Diag. 0.10E+00    6.0     4.9581E-09       -12.8670195611  2.04E-09
   127 Broy./Diag. 0.10E+00    5.9     2.2578E-09       -12.8670195553  5.81E-09
   128 Broy./Diag. 0.10E+00    6.1     2.4653E-09       -12.8670195550  2.55E-10
   129 Broy./Diag. 0.10E+00    5.8     2.1382E-09       -12.8670195548  2.07E-10
   130 Broy./Diag. 0.10E+00    5.7     1.9716E-09       -12.8670195553 -5.23E-10
   131 Broy./Diag. 0.10E+00    6.0     2.6699E-09       -12.8670195604 -5.09E-09
   132 Broy./Diag. 0.10E+00    6.1     1.7978E-09       -12.8670195588  1.63E-09
   133 Broy./Diag. 0.10E+00    6.1     1.7072E-09       -12.8670195509  7.84E-09
   134 Broy./Diag. 0.10E+00    5.7     4.5691E-09       -12.8670195505  4.71E-10
   135 Broy./Diag. 0.10E+00    5.8     2.8614E-09       -12.8670195575 -6.99E-09
   136 Broy./Diag. 0.10E+00    6.1     3.7542E-09       -12.8670195595 -2.08E-09
   137 Broy./Diag. 0.10E+00    6.1     4.0898E-09       -12.8670195547  4.88E-09
   138 Broy./Diag. 0.10E+00    5.9     1.2247E-09       -12.8670195538  8.97E-10
   139 Broy./Diag. 0.10E+00    5.9     9.4719E-10       -12.8670195554 -1.65E-09

  *** SCF run converged in   139 steps ***


  Electronic density on regular grids:         -8.0000000000        0.0000000000
  Core density on regular grids:                8.0000000000       -0.0000000000
  Total charge density on r-space grids:       -0.0000000000
  Total charge density g-space grids:          -0.0000000000

  Overlap energy of the core charge distribution:               0.00000102720762
  Self energy of the core charge distribution:                -30.91005782344042
  Core Hamiltonian energy:                                      9.49776791609212
  Hartree energy:                                              12.22279914740066
  Exchange-correlation energy:                                 -3.67752982267378

  Total energy:                                               -12.86701955541379

 !-----------------------------------------------------------------------------!
                     Mulliken Population Analysis

 #  Atom  Element  Kind  Atomic population                           Net charge
       1     B        1          3.101032                             -0.101032
       2     N        2          4.898968                              0.101032
 # Total charge                              8.000000                  0.000000

 !-----------------------------------------------------------------------------!

 !-----------------------------------------------------------------------------!
                           Hirshfeld Charges

  #Atom  Element  Kind  Ref Charge     Population                    Net charge
      1       B      1       3.000          2.610                         0.390
      2       N      2       5.000          5.389                        -0.389

  Total Charge                                                            0.001
 !-----------------------------------------------------------------------------!
  
 -------------------------------------------------------------------------------
 -                                                                             -
 -                          BANDSTRUCTURE CALCULATION                          -
 -                                                                             -
 -------------------------------------------------------------------------------
  
 Number of occupied molecular orbitals (MOs) = Number of occupied bands        4
 Number of unoccupied (= virtual) MOs = Number of unoccupied bands            22
 Number of Gaussian basis functions for MOs                                   26
 Number of cells considered in the DFT calculation                           315
 Number of cells for G, χ, W, Σ                                             2209
 Number of special k-points for the bandstructure                              4
 Number of k-points for the bandstructure                                   2452
  
 -------------------------------------------------------------------------------
 -                                                                             -
 -                                GW CALCULATION                               -
 -                                                                             -
 -------------------------------------------------------------------------------
  
 Input: Number of time/freq. points                                           30
 Input: ω_max for fitting Σ(iω) (eV)                                        10.0
 Input: Filter threshold for sparse tensor operations                    1.0E-11
 Input: Apply Hedin shift                                                      F
  
 Number of auxiliary Gaussian basis functions for χ, ε, W                     47
 Cutoff radius for the truncated Coulomb operator in Σ^x:                 51.1 Å
 Cutoff radius for the truncated Coulomb operator in RI metric:            7.0 Å
 Regularization parameter of RI                                          1.0E-02
 Regularization parameter of minimax grids                               1.0E-06
 Lattice sum size for V(k):                                                    3
  
 K-point mesh 1 for χ, ε, W                                          192 192   1
 K-point mesh 2 for χ, ε, W (for k-point extrapolation of W)         384 384   1
 Approximate the k-point extrapolation                                         F
 Radius of atomic orbitals                                                11.8 Å
 Radius of RI functions                                                    8.7 Å
 Number of cells for 3c integrals                                            395
 Number of cell pairs for 3c integrals                                     39409
 
 Input: Available memory per MPI process                                 32.0 GB
 Used memory per MPI process before GW run                                0.4 GB
 Memory of three-center integrals                                        10.0 GB
 Group size for tensor operations                                              1
 Number of cells ΔR                                                         1539
 Min. abs. eigenvalue of RI metric matrix M(k)                           2.4E-04
 Max. abs. eigenvalue of RI metric matrix M(k)                           1.1E+03
 Max. condition number of M(k)                                           6.2E+06
 
 SCF direct band gap (eV)                                                   4.67
 Max. SCF eigval diff. (eV)                                               262.88
 E-Range for minimax grid                                                  56.28
 Number of Padé parameters for analytic continuation:                         16
 
 Computed χ^R(iτ) for time point            1 / 30,      Execution time  364.0 s
 Computed χ^R(iτ) for time point            2 / 30,      Execution time  659.3 s
 Computed χ^R(iτ) for time point            3 / 30,      Execution time  699.0 s
 Computed χ^R(iτ) for time point            4 / 30,      Execution time  695.5 s
 Computed χ^R(iτ) for time point            5 / 30,      Execution time  704.5 s
 Computed χ^R(iτ) for time point            6 / 30,      Execution time  696.7 s
 Computed χ^R(iτ) for time point            7 / 30,      Execution time  694.2 s
 Computed χ^R(iτ) for time point            8 / 30,      Execution time  688.5 s
 Computed χ^R(iτ) for time point            9 / 30,      Execution time  702.1 s
 Computed χ^R(iτ) for time point           10 / 30,      Execution time  675.8 s
 Computed χ^R(iτ) for time point           11 / 30,      Execution time  675.4 s
 Computed χ^R(iτ) for time point           12 / 30,      Execution time  669.6 s
 Computed χ^R(iτ) for time point           13 / 30,      Execution time  660.2 s
 Computed χ^R(iτ) for time point           14 / 30,      Execution time  656.1 s
 Computed χ^R(iτ) for time point           15 / 30,      Execution time  652.3 s
 Computed χ^R(iτ) for time point           16 / 30,      Execution time  684.2 s
 Computed χ^R(iτ) for time point           17 / 30,      Execution time  680.5 s
 Computed χ^R(iτ) for time point           18 / 30,      Execution time  715.5 s
 Computed χ^R(iτ) for time point           19 / 30,      Execution time  764.6 s
 Computed χ^R(iτ) for time point           20 / 30,      Execution time  745.1 s
 Computed χ^R(iτ) for time point           21 / 30,      Execution time  718.7 s
 Computed χ^R(iτ) for time point           22 / 30,      Execution time  562.0 s
 Computed χ^R(iτ) for time point           23 / 30,      Execution time   22.0 s
 Computed χ^R(iτ) for time point           24 / 30,      Execution time   14.0 s
 Computed χ^R(iτ) for time point           25 / 30,      Execution time   13.7 s
 Computed χ^R(iτ) for time point           26 / 30,      Execution time   13.9 s
 Computed χ^R(iτ) for time point           27 / 30,      Execution time   13.6 s
 Computed χ^R(iτ) for time point           28 / 30,      Execution time   13.9 s
 Computed χ^R(iτ) for time point           29 / 30,      Execution time   13.8 s
 Computed χ^R(iτ) for time point           30 / 30,      Execution time   14.0 s
 Computed V_PQ(k),                                       Execution time 2463.9 s
 
 Computed W_PQ(k,iω) for all k and τ,                    Execution time 1340.1 s
 
 Computed Σ^x,                                           Execution time 1387.1 s
 
 Computed Σ^c(iτ) for time point            1 / 30,      Execution time  484.6 s
 Computed Σ^c(iτ) for time point            2 / 30,      Execution time  349.6 s
 Computed Σ^c(iτ) for time point            3 / 30,      Execution time  343.7 s
 Computed Σ^c(iτ) for time point            4 / 30,      Execution time  338.3 s
 Computed Σ^c(iτ) for time point            5 / 30,      Execution time  334.4 s
 Computed Σ^c(iτ) for time point            6 / 30,      Execution time  330.4 s
 Computed Σ^c(iτ) for time point            7 / 30,      Execution time  326.5 s
 Computed Σ^c(iτ) for time point            8 / 30,      Execution time  321.1 s
 Computed Σ^c(iτ) for time point            9 / 30,      Execution time  315.9 s
 Computed Σ^c(iτ) for time point           10 / 30,      Execution time  304.0 s
 Computed Σ^c(iτ) for time point           11 / 30,      Execution time  293.5 s
 Computed Σ^c(iτ) for time point           12 / 30,      Execution time  282.2 s
 Computed Σ^c(iτ) for time point           13 / 30,      Execution time  274.9 s
 Computed Σ^c(iτ) for time point           14 / 30,      Execution time  267.0 s
 Computed Σ^c(iτ) for time point           15 / 30,      Execution time  259.2 s
 Computed Σ^c(iτ) for time point           16 / 30,      Execution time  248.1 s
 Computed Σ^c(iτ) for time point           17 / 30,      Execution time  230.1 s
 Computed Σ^c(iτ) for time point           18 / 30,      Execution time  210.8 s
 Computed Σ^c(iτ) for time point           19 / 30,      Execution time  186.1 s
 Computed Σ^c(iτ) for time point           20 / 30,      Execution time  117.9 s
 Computed Σ^c(iτ) for time point           21 / 30,      Execution time   18.9 s
 Computed Σ^c(iτ) for time point           22 / 30,      Execution time   21.1 s
 Computed Σ^c(iτ) for time point           23 / 30,      Execution time   17.0 s
 Computed Σ^c(iτ) for time point           24 / 30,      Execution time   15.3 s
 Computed Σ^c(iτ) for time point           25 / 30,      Execution time   15.9 s
 Computed Σ^c(iτ) for time point           26 / 30,      Execution time   15.2 s
 Computed Σ^c(iτ) for time point           27 / 30,      Execution time   15.9 s
 Computed Σ^c(iτ) for time point           28 / 30,      Execution time   15.2 s
 Computed Σ^c(iτ) for time point           29 / 30,      Execution time   16.0 s
 Computed Σ^c(iτ) for time point           30 / 30,      Execution time   15.5 s

 
 SCF valence band maximum (eV):                                           -3.157
 SCF conduction band minimum (eV):                                         1.514
 SCF indirect band gap (eV):                                               4.671
 SCF direct band gap (eV):                                                 4.671
 
 G0W0 valence band maximum (eV):                                          -4.164
 G0W0 conduction band minimum (eV):                                        3.421
 G0W0 indirect band gap (eV):                                              7.585
 G0W0 direct band gap (eV):                                                7.585
 
 Hartree-Fock with SCF orbitals valence band maximum (eV):                -6.478
 Hartree-Fock with SCF orbitals conduction band minimum (eV)               6.753
 Hartree-Fock with SCF orbitals indirect band gap (eV):                   13.231
 Hartree-Fock with SCF orbitals direct band gap (eV):                     13.457

 ENERGY| Total FORCE_EVAL ( QS ) energy [hartree]            -12.867019560365181

 -------------------------------------------------------------------------------
 -                                                                             -
 -                                DBCSR STATISTICS                             -
 -                                                                             -
 -------------------------------------------------------------------------------
 COUNTER                                    TOTAL       BLAS       SMM       ACC
 flops inhomo. stacks                           0       0.0%      0.0%      0.0%
 flops total                         0.000000E+00       0.0%      0.0%      0.0%
 flops max/rank                      0.000000E+00       0.0%      0.0%      0.0%
 matmuls inhomo. stacks                         0       0.0%      0.0%      0.0%
 matmuls total                                  0       0.0%      0.0%      0.0%
 number of processed stacks                     0       0.0%      0.0%      0.0%
 average stack size                                     0.0       0.0       0.0
 marketing flops                     0.000000E+00
 -------------------------------------------------------------------------------
 -                                                                             -
 -                      DBCSR MESSAGE PASSING PERFORMANCE                      -
 -                                                                             -
 -------------------------------------------------------------------------------
 ROUTINE             CALLS      AVE VOLUME [Bytes]
 MP_Bcast                1                     12.
 MP_Allreduce           19                     21.
 MP_Alltoall      19080725                  45768.
 -------------------------------------------------------------------------------

 -------------------------------------------------------------------------------
 -                                                                             -
 -                                DBM STATISTICS                               -
 -                                                                             -
 -------------------------------------------------------------------------------
    M  x    N  x    K                                          COUNT     PERCENT
    ?  x    ?  x    ?                                     9047090941      49.79%
   ??  x   ??  x  ???                                     2519071235      13.86%
  ???  x   ??  x   ??                                     6602522442      36.34%
 -------------------------------------------------------------------------------
 Memory consumption                Number of allocations  Used [MiB]  Size [MiB]
 Host                                             177941       10174       16869
 -------------------------------------------------------------------------------

 -------------------------------------------------------------------------------
 -                                                                             -
 -                                GRID STATISTICS                              -
 -                                                                             -
 -------------------------------------------------------------------------------
 LP    KERNEL             BACKEND                              COUNT     PERCENT
 4     integrate general  CPU                                 775888      50.33%
 4     collocate general  CPU                                 764960      49.62%
 0     collocate general  CPU                                    512       0.03%
 0     integrate general  CPU                                    256       0.02%
 -------------------------------------------------------------------------------

 MEMORY| Estimated peak process memory [MiB]                               17311

 -------------------------------------------------------------------------------
 ----                             MULTIGRID INFO                            ----
 -------------------------------------------------------------------------------
 count for grid        1:         477899          cutoff [a.u.]          500.00
 count for grid        2:         418592          cutoff [a.u.]          166.67
 count for grid        3:         472540          cutoff [a.u.]           55.56
 count for grid        4:         225446          cutoff [a.u.]           18.52
 total gridlevel count  :        1594477

 -------------------------------------------------------------------------------
 -                                                                             -
 -                         MESSAGE PASSING PERFORMANCE                         -
 -                                                                             -
 -------------------------------------------------------------------------------

 ROUTINE             CALLS      AVE VOLUME [Bytes]
 MP_Group         79082859
 MP_Bcast         54832531                    296.
 MP_Allreduce    141744723                    465.
 MP_Sync         134020748
 MP_Alltoall      62857318                    555.
 MP_SendRecv         53340                   3547.
 MP_ISendRecv        54102                   3547.
 MP_Wait           5734417
 MP_comm_split    49065413
 MP_ISend         64604058                   2237.
 MP_IRecv         13853748                   1698.
 -------------------------------------------------------------------------------


 -------------------------------------------------------------------------------
 -                                                                             -
 -                           R E F E R E N C E S                               -
 -                                                                             -
 -------------------------------------------------------------------------------
 
 CP2K version 2025.2 (Development Version), the CP2K developers group (2025).
 CP2K is freely available from https://www.cp2k.org/ .
 
 M. Graml, K. Zollner, D. Hernangómez-Pérez, P. E. Faria Junior, J. Wilhelm.
 J. Chem. Theory Comput. 20, 2202-2208 (2024).
 Low-scaling GW algorithm applied to twisted transition-metal dichalcogenide 
 heterobilayers.
 https://doi.org/10.1021/acs.jctc.3c01230

 T. D. Kuehne, M. Iannuzzi, M. Del Ben, V. V. Rybkin, P. Seewald, F. Stein, T. 
 Laino, R. Z. Khaliullin, O. Schuett, F. Schiffmann, D. Golze, J. Wilhelm, S. 
 Chulkov, M. H. Bani-Hashemian, V. Weber, U. Borstnik, M. Taillefumier, A. S. 
 Jakobovits, A. Lazzaro, H. Pabst, T. Mueller, R. Schade, M. Guidon, S. 
 Andermatt, N. Holmberg, G. K. Schenter, A. Hehn, A. Bussy, F. Belleflamme, G. 
 Tabacchi, A. Gloess, M. Lass, I. Bethune, C. J. Mundy, C. Plessl, M. Watkins, 
 J. VandeVondele, M. Krack, J. Hutter.
 J. Chem. Phys. 152, 194103 (2020).
 CP2K: An electronic structure and molecular dynamics software package - 
 Quickstep: Efficient and accurate electronic structure calculations.
 https://doi.org/10.1063/5.0007045

 A. Togo, I. Tanaka.
 arXiv, 1808.01590 (2018).
 Spglib : a software library for crystal symmetry search.

 O. Schuett, P. Messmer, J. Hutter, J. VandeVondele.
 Electronic Structure Calculations on Graphics Processing Units, 173-190 (2016).
 GPU-Accelerated Sparse Matrix-Matrix Multiplication for Linear Scaling Density 
 Functional Theory.
 https://doi.org/10.1002/9781118670712.ch8

 A. Heinecke, G. Henry, M. Hutchinson, H. Pabst.
 Proceedings of Intl. Supercomputing Conference, 981-991 (2016).
 LIBXSMM: Accelerating Small Matrix Multiplications by Runtime Code Generation.
 https://doi.org/10.1109/SC.2016.83

 J. Hutter, M. Iannuzzi, F. Schiffmann, J. VandeVondele.
 WIREs Comput Mol Sci. 4, 15-25 (2014).
 CP2K: atomistic simulations of condensed matter systems.
 https://doi.org/10.1002/wcms.1159

 U. Borstnik, J. VandeVondele, V. Weber, J. Hutter.
 Parallel Comput. 40, 47-58 (2014).
 Sparse matrix multiplication: The distributed block-compressed sparse row 
 library.
 https://doi.org/10.1016/j.parco.2014.03.012

 A. Marek, V. Blum, R. Johanni, V. Havu, B. Lang, T. Auckenthaler, A. Heinecke, 
 H. Bungartz, H. Lederer.
 J. Phys. Condens. Matter 26, 213201 (2014).
 The ELPA library: scalable parallel eigenvalue solutions for electronic 
 structure theory and computational science.
 https://doi.org/10.1088/0953-8984/26/21/213201

 J. VandeVondele, J. Hutter.
 J. Chem. Phys. 127, 114105 (2007).
 Gaussian basis sets for accurate calculations on molecular systems in gas and 
 condensed phases.
 https://doi.org/10.1063/1.2770708

 J. VandeVondele, M. Krack, F. Mohamed, M. Parrinello, T. Chassaing, J. Hutter.
 Comput. Phys. Commun. 167, 103-128 (2005).
 QUICKSTEP: Fast and accurate density functional calculations using a mixed 
 Gaussian and plane waves approach.
 https://doi.org/10.1016/j.cpc.2004.12.014

 M. Krack.
 Theor. Chem. Acc. 114, 145-152 (2005).
 Pseudopotentials for H to Kr optimized for gradient-corrected 
 exchange-correlation functionals.
 https://doi.org/10.1007/s00214-005-0655-y

 M. Frigo, S. G. Johnson.
 Proc. IEEE 93, 216-231 (2005).
 The design and implementation of FFTW3.
 https://doi.org/10.1109/JPROC.2004.840301

 C. Hartwigsen, S. Goedecker, J. Hutter.
 Phys. Rev. B 58, 3641-3662 (1998).
 Relativistic separable dual-space Gaussian pseudopotentials from H to Rn.
 https://doi.org/10.1103/PhysRevB.58.3641

 G. Lippert, J. Hutter, M. Parrinello.
 Mol. Phys. 92, 477-487 (1997).
 A hybrid Gaussian and plane wave density functional scheme.
 https://doi.org/10.1080/002689797170220

 S. Goedecker, M. Teter, J. Hutter.
 Phys. Rev. B 54, 1703-1710 (1996).
 Separable dual-space Gaussian pseudopotentials.
 https://doi.org/10.1103/PhysRevB.54.1703

 J. P. Perdew, K. Burke, M. Ernzerhof.
 Phys. Rev. Lett. 77, 3865-3868 (1996).
 Generalized gradient approximation made simple.
 https://doi.org/10.1103/PhysRevLett.77.3865


 -------------------------------------------------------------------------------
 -                                                                             -
 -                                T I M I N G                                  -
 -                                                                             -
 -------------------------------------------------------------------------------
 SUBROUTINE                       CALLS  ASD         SELF TIME        TOTAL TIME
                                MAXIMUM       AVERAGE  MAXIMUM  AVERAGE  MAXIMUM
 CP2K                                 1  1.0     0.04     0.06 27749.59 27750.01
 qs_energies                          1  2.0     0.00     0.00 27512.55 27512.97
 qs_energies_properties               1  3.0     0.00     0.00 26688.46 26688.87
 post_scf_bandstructure               1  4.0     0.00     0.00 26688.46 26688.87
 gw                                   1  5.0     0.00     0.00 26649.18 26649.59
 gw_calc_small_cell_full_kp           1  6.0     0.00     0.00 26591.18 26591.58
 dbt_total                      *******  9.6    52.60    54.79 16834.16 18964.01
 dbt_contract                   ******* 10.4   103.99   108.35 16102.08 18205.01
 dbt_tas_multiply               ******* 12.9    15.66    17.27 15389.79 17498.50
 dbt_tas_total                  ******* 13.9   572.58   596.32 15379.97 17488.35
 compute_chi                          1  7.0     0.09     0.66 14932.60 14933.07
 dbt_tas_estimate_result_nze    9082660 13.4   242.61   251.98  8662.66 10520.84
 G_times_3c                       44676  8.0    32.87    37.91  7707.60  9306.24
 compute_Sigma_c                      1  7.0     0.00     0.00  5993.62  5994.22
 mp_sync                        ******* 12.6  3100.01  5841.80  3100.01  5841.80
 contract_M_occ_vir_to_chi          135  8.0    97.52   102.66  3514.40  4482.34
 dbm_reserve_blocks             ******* 16.6  2978.30  4141.31  2978.30  4141.31
 convert_to_new_pgrid           ******* 14.9    80.39    84.48  3334.68  3888.70
 dbt_tas_dbm                    ******* 14.9    14.26    14.97  3376.44  3843.82
 dbm_multiply                   ******* 16.9  3345.63  3812.25  3345.63  3812.25
 dbm_copy                       ******* 15.9  3254.29  3807.29  3254.29  3807.29
 compute_W_real_space                 1  7.0     3.03     3.30  3804.39  3804.61
 contract_to_Sigma                  258  8.0    67.89    71.50  3556.91  3769.39
 dbt_tas_reserve_blocks_index   ******* 15.9    39.60    42.28  2089.84  3132.65
 contract_W                         135  8.0    24.73    26.55  2524.93  2676.98
 reshape_mm_small               ******* 14.9  1060.39  1163.87  2368.12  2650.69
 compute_Minv_and_Vsqrt               1  8.0     0.03     0.03  2463.85  2463.98
 build_2c_coulomb_matrix_kp_sma       2  9.0     4.86    12.74  2457.16  2457.28
 contract_to_Sigma_3c_x_G       3736185  9.0     4.45     4.87  2205.60  2342.36
 build_2c_coulomb_matrix_kp_sma 1474560 10.0  2078.90  2140.82  2078.90  2140.82
 dbt_tas_reserve_blocks_templat ******* 14.2    32.75    35.26  1347.18  2127.11
 dbt_tas_mm_1N                  4655222 15.5     2.48     2.91  1803.48  2090.67
 G_occ_vir                          121  8.0     0.64     0.71  1593.07  1612.32
 dbcsr_complete_redistribute    1590525  9.2    28.80    78.84  1381.04  1477.25
 dbt_tas_reshape                ******* 15.5    87.20    91.13  1096.91  1418.73
 compute_Sigma_x                      1  7.0     0.00     0.00  1391.82  1392.23
 mp_alltoall_i22                3179935  9.6  1238.14  1385.11  1238.14  1385.11
 contract_to_Sigma_contract       41959  9.0    28.66    30.30  1250.78  1351.53
 dbt_tas_replicate              ******* 14.9   183.29   192.45  1209.19  1327.87
 dbt_tas_mm_2                   5181214 16.0     4.77     5.07   951.98  1245.15
 dbm_add                        ******* 14.9   911.69  1223.44   911.69  1223.44
 fm_to_local_tensor              335768  9.0     2.59     2.72  1139.03  1139.46
 dbt_tas_reshape_buffer_obtain  ******* 16.5    86.37    91.41   796.44  1108.82
 dbt_tas_create_split           ******* 16.0    29.88    31.61  1049.69  1092.70
 dbt_tas_create_split_rows_or_c ******* 17.0   111.03   116.98  1019.81  1061.31
 copy_fm_to_dbcsr                656339  9.0     1.39     1.47   929.58  1041.31
 fm_to_local_array                  934  8.1    19.22    19.68  1029.30  1029.52
 mp_sum_dm3                        1134  8.9  1018.41  1018.48  1018.41  1018.48
 reshape_mm_compatible          ******* 14.9   142.13   148.32   972.10  1009.54
 global_matrix_to_local_matrix   335768 10.0     3.02     4.62   230.94   893.61
 dbt_copy                       ******* 10.9    80.46    85.92   782.08   866.12
 scf_env_do_scf                       1  3.0     0.00     0.00   823.33   823.34
 scf_env_do_scf_inner_loop          139  4.0     0.02     0.03   823.33   823.34
 send_data                       335768 11.0     0.20     0.24   135.35   814.63
 communicate_buffer              335768 12.0     1.24    21.30   135.15   814.39
 qs_scf_new_mos_kp                  139  5.0     0.00     0.00   796.34   796.88
 do_general_diag_kp                 139  6.0     1.50     1.56   796.34   796.88
 dbt_tas_distribution_new       ******* 15.7   375.75   389.98   737.26   762.65
 mp_waitall_1                   5265119 10.3   135.12   748.81   135.12   748.81
 change_split                   ******* 15.4    46.48    48.47   654.20   680.63
 copy_dbcsr_to_fm                934186  7.7     4.75     5.01   656.86   672.41
 dbt_tas_mm_3T                  8418938 16.1     4.66     5.25   603.42   640.56
 parallel_gemm_cfm               592640  9.0     0.40     0.48   586.91   612.15
 parallel_gemm_cfm_cosma         592640 10.0   586.51   611.79   586.51   611.79
 mp_cart_create                 ******* 16.6   508.90   525.05   559.31   577.02
 dbt_reshape                    ******* 11.8   349.83   433.07   486.51   568.82
 compute_QP_energies                  1  7.0     0.26     0.38   468.75   470.67
 trafo_to_k_and_nn               149572  8.0     0.48     0.55   468.20   470.17
 get_t_3c_int                   *******  9.3    22.28    23.53   398.60   442.04
 dbt_remap                      1608258 11.0   145.82   153.97   384.15   401.88
 dbt_destroy                    ******* 10.9   331.44   385.24   338.94   392.79
 dbcsr_desymmetrize_deep        1589410  8.0    11.87    14.00   357.09   391.50
 mp_comm_dup                    ******* 18.5   321.00   336.45   349.59   366.03
 dbt_tas_merge                  5181214 15.0    54.51    57.03   197.26   306.09
 fm_add_ikp_to_rs                278784  9.0   185.88   192.98   283.49   291.55
 local_dbt_to_global_fm              91  8.0     0.33     0.35   265.63   265.63
 mp_cart_sub                    1868451  9.7   262.30   262.60   262.30   262.60
 mp_comm_split_direct           ******* 18.0   216.31   225.54   230.97   240.50
 bs_env_release                       1  2.0     0.34     0.47   184.58   235.46
 mp_comm_free                   ******* -8.2   208.14   223.90   208.14   223.90
 add_ikp_to_rs                  ******* -3.0   196.56   205.49   196.56   205.49
 add_R                          ******* -4.6   120.69   127.92   181.45   191.57
 mp_sum_dm                      1474698 10.0   174.50   190.91   174.50   190.91
 add_rs_to_ikp                  ******* -1.3   175.62   185.33   175.62   185.33
 dbt_permute_index              ******* 12.2   154.52   163.35   174.46   184.52
 fm_trafo_rs_to_ikp              149572  9.0   100.10   102.64   168.65   178.17
 kpoint_density_transform           139  7.0     0.46     0.48   162.73   162.80
 reshape_mm_template            3216516 15.5   103.36   112.43   151.46   160.88
 dbt_tas_create_new             ******* 15.3   144.74   151.62   144.74   151.62
 dbt_align_index                ******* 11.4    25.32    26.57   143.77   148.95
 local_dbt_to_global_mat         201019  9.0     0.56     0.59    57.76   143.31
 dbt_tas_reshape_buffer_fill    ******* 16.5   132.50   139.00   132.50   139.00
 dbt_tas_copy                   7271227 12.3    46.58    57.59   116.33   130.04
 local_matrix_to_global_matrix   201019 10.0     0.37     0.40    41.74   128.29
 trafo_rs_to_ikp                  24156  8.1    17.31    18.69   124.39   127.31
 mp_max_i                       ******* 11.4    57.25   125.81    57.25   125.81
 add_V_L                         737280 10.0     3.77   125.51     3.77   125.51
 rskp_transform                  327612  7.0     1.68   121.12     1.68   121.12
 add_ikp_to_all_rs                22158  8.0    15.39    16.28   114.37   120.99
 dbt_tas_mp_comm                ******* 13.1    14.60    15.78   115.07   120.98
 cp_fm_start_copy_general        960768  7.3     4.04     7.32   115.66   119.33
 is_cell_in_index_to_cell       *******  2.0   110.20   117.17   110.20   117.17
 dbt_distribution_new_expert    3888062 12.3    19.68    20.55   112.80   116.94
 comm_data                       201019 11.0     0.30     2.18    23.98   103.26
 mult_W_with_Minv                    30  8.0     0.24     0.25   101.57   101.57
 get_V_tr_R                          34  9.0     0.17     0.18   100.87   100.90
 mp_waitall_2                    402038 12.0    22.22   100.06    22.22   100.06
 destroy_t_1d                        98  8.0     0.48     0.58    93.85    98.19
 fm_MWM_R_t_to_local_tensor_W_R      30  8.0     0.05     0.05    96.50    96.53
 mp_allgather_i                 1921536  8.3    88.98    95.08    88.98    95.08
 dbt_reserve_blocks_index_array ******* 12.8     9.79    11.37    85.12    94.06
 mp_comm_size                   ******* -3.5    82.89    92.54    82.89    92.54
 dbt_reserve_blocks_index       ******* 13.7    12.41    13.61    81.51    88.18
 mp_cart_get                    *******  3.7    81.64    86.72    81.64    86.72
 mp_sum_i                       ******* 15.9    74.40    76.10    74.40    76.10
 send_sizes_1                    335768 11.0     0.19     0.21    70.63    72.10
 mp_alltoall_d11v               9540087 10.1    22.74    69.29    22.74    69.29
 dbt_create_new                 1944031 11.8    12.49    13.40    59.76    62.49
 dbt_copy_nocomm                1431944 11.0    23.77    48.88    35.82    60.24
 mp_comm_rank                   ******* -3.5    55.13    60.04    55.13    60.04
 transform_dmat                  160128  8.0     0.79    59.57     0.79    59.57
 create_and_init_bs_env_for_gw        1  6.0     0.00     0.00    58.01    58.01
 dbt_communicate_buffer         ******* 12.8    50.27    55.51    50.27    55.51
 mp_alltoall_i11v               6360985  9.9    37.63    48.94    37.63    48.94
 dbcsr_finalize                 5387514 10.6     8.62    10.24    37.45    44.96
 dbm_filter                     ******* 14.9    39.57    41.81    39.57    41.81
 mp_alltoall_i                  ******* 15.4    38.49    40.28    38.49    40.28
 mp_isend_dv                    ******* 10.0     2.60    39.51     2.60    39.51
 destroy_t_2d                        62  8.0    11.76    18.52    30.36    38.91
 dbt_create_3c_R1_R2                 62  8.0     8.49     9.08    35.23    36.27
 dbt_create_matrix               335768 10.0     1.86     1.97    33.34    35.07
 dbt_tas_reshape_communicate_bu ******* 16.5    11.95    13.47    30.22    32.53
 dbt_pgrid_create_expert        3888065 13.3     4.22     4.48    28.90    30.77
 dbt_create_template            *******  9.0    28.24    29.22    28.24    29.22
 create_and_init_bs_env               1  5.0     0.00     0.00    28.39    28.39
 compute_cfm_mo_coeff_kp_and_ei       1  6.0     0.01     0.01    28.39    28.39
 get_Minv_Vtr_Minv_R                  1  8.0     0.01     0.01    27.78    27.81
 dbt_tas_communicate_buffer     ******* 17.2    24.89    27.40    24.89    27.40
 compute_3c_integrals                 1  7.0     0.16     0.17    26.85    26.85
 dbt_tas_reshape_get_coord      ******* 16.5    25.11    26.54    25.11    26.54
 mp_sum_l                       ******* 15.0    24.67    26.49    24.67    26.49
 build_3c_integrals                   1  8.0    19.50    19.86    25.75    26.04
 get_data                        335768 11.0     5.40    25.21     5.88    25.79
 dbm_scale                      ******* 14.5    21.05    22.37    21.05    22.37
 dbt_tas_reshape_alltoall       ******* 16.5    10.44    12.35    19.34    22.11
 dbt_nd_mp_comm                 1944026 11.8     2.65     2.82    20.22    21.36
 dbcsr_merge_all                2127432 11.4    12.79    14.14    18.37    21.08
 mp_bcast_iv                    3843412  8.3    17.11    19.37    17.11    19.37
 cp_cfm_geeig_canon                2452  7.0     0.01     0.01    18.91    18.98
 mp_waitany                       67260 11.5    18.01    18.86    18.01    18.86
 mp_sum_dv                       164422  8.9    13.72    18.22    13.72    18.22
 dbcsr_filter_anytype           1529808 11.0     2.96     3.26    11.60    18.19
 cp_cfm_heevd                      6155  8.0     0.00     0.00    17.99    18.06
 cp_cfm_heevd_base                 6155  9.0    17.99    18.06    17.99    18.06
 dbt_create_2c_R                     98  8.0    14.26    17.06    14.91    17.74
 qs_rho_update_rho_low              140  5.0     0.00     0.00    15.11    15.11
 calculate_rho_elec                 140  6.0     0.00     0.00    15.11    15.11
 transfer_rs2pw                     562  8.0     0.00     0.00    14.48    15.07
 mp_bcast_i                     ******* 18.0    13.32    14.96    13.32    14.96
 power                            45918  8.0     1.78     2.00    14.30    14.91
 transfer_rs2pw_500                 142  9.0     0.13     0.16    14.28    14.87
 density_rs2pw                      140  7.0     0.00     0.00    14.26    14.85
 rsmat_to_kp                       7356  7.3     0.05     0.06    14.05    14.14
 dbt_reserve_blocks_template    1431944 12.0     2.17     2.45    12.05    13.67
 dbcsr_create_new               5226336  9.5    10.06    10.60    12.63    13.30
 mp_dims_create                 ******* 14.3    11.27    13.09    11.27    13.09
 diag_complex                     45918  9.0    12.51    12.94    12.51    12.94
 dbt_tas_replicate_communicate_ ******* 15.9     7.00     7.63    11.74    12.65
 setup_parallelization_Delta_R        1  7.0     0.00     0.00    12.11    12.11
 compute_n_tensor_ops_Delta_R         1  8.0     3.44     5.11    12.06    12.06
 set_blocks                      201019 11.0     1.94     4.23     5.41    11.17
 dos_pdos_ldos                        1  5.0     0.00     0.00    10.89    10.90
 send_sizes_2                    335768 11.0     0.20     0.22    10.38    10.76
 dbt_tas_replicate_alltoall     ******* 15.9     5.98     6.74     9.58    10.51
 qs_ks_update_qs_env                139  5.0     0.00     0.00     8.52    10.37
 dbcsr_iterator_start           ******* 10.4     7.60     7.94     9.71    10.36
 dbt_distribution_destroy       3888062 12.3     7.42     8.12     9.59    10.32
 compute_proj_mo_on_kind           2452  6.0     0.02     0.03     9.98     9.98
 trafo_V_xc_R_to_kp                   1  7.0     0.01     0.01     9.96     9.98
 copy_fm_to_dbcsr_bc             656339 10.0     2.74     3.04     9.01     9.74
 qs_ks_build_kohn_sham_matrix       142  7.0     0.04     0.04     7.62     9.50
 mp_cart_rank                   ******* 15.9     8.34     9.30     8.34     9.30
 rebuild_ks_matrix                  139  6.0     0.00     0.00     7.25     9.09
 sum_up_and_integrate               142  8.0     0.00     0.00     7.03     8.89
 integrate_v_rspace                 142  9.0     0.00     0.00     7.03     8.89
 dbt_copy_matrix_to_tensor       335768 10.0     1.21     1.29     7.35     8.72
 dbcsr_work_create              3716842  9.8     4.49     5.45     6.70     8.16
 dbcsr_destroy                  4936802  9.2     4.03     4.29     7.41     7.88
 dbcsr_data_release             ******* 11.0     6.35     7.41     6.35     7.41
 dbt_buffer_get_index           ******* 16.8     6.69     7.40     6.69     7.40
 mp_isend_im2                   ******* 12.8     0.16     7.32     0.16     7.32
 dbcsr_iterator_stop            ******* 10.4     5.44     5.69     6.89     7.31
 dbt_reserve_blocks_matrix_to_t  335768 11.0     0.80     0.83     5.68     7.04
 comm_size                       201019 11.0     0.16     0.17     6.62     6.88
 hybrid_alltoall_any            1589410  9.0     3.80     3.93     5.87     6.82
 dbcsr_data_new                 ******* 10.5     5.61     6.72     5.61     6.72
 heuristic_RI_regularization          1  7.0     0.00     0.00     6.64     6.64
 mp_sum_iv                           24  6.1     3.88     6.62     3.88     6.62
 potential_pw2rs                    142 10.0     0.00     0.00     6.47     6.48
 transfer_pw2rs                     569 11.0     0.00     0.00     6.35     6.35
 dbcsr_work_destroy_all         3716842 10.7     3.91     4.48     5.18     5.99
 dbt_tas_merge_alltoall         5181214 16.0     2.74     2.94     4.96     5.31
 mp_bcast_im                    1921536  8.3     4.31     5.31     4.31     5.31
 dbt_tas_merge_communicate_buff 5181214 16.0     2.95     3.15     4.83     5.23
 transfer_pw2rs_500                 143 12.0     0.11     0.14     5.19     5.19
 quick_finalize                 1589410 10.0     2.17     2.75     3.63     5.08
 reserve_blocks                  335768 11.0     0.73     0.80     3.75     4.80
 copy_dbcsr_to_fm_bc             934186  8.7     2.14     2.45     3.75     4.03
 fill_buffer                     201019 11.0     2.77     3.73     3.05     4.03
 dbcsr_reserve_blocks           1487002 12.1     2.02     3.20     2.67     3.99
 abc_contract_xsmm               337412  9.0     3.47     3.77     3.47     3.77
 build_2c_integrals                  34 10.0     0.08     1.60     0.25     3.76
 dbcsr_copy                      610105  9.6     0.70     0.98     2.70     3.72
 tree_to_linear_d               1748976 12.2     2.60     3.35     2.60     3.35
 dbcsr_set                      4348480 10.1     2.04     2.11     2.90     3.27
 dbcsr_reserve_all_blocks        857358 11.3     0.65     0.69     2.25     3.26
 get_coord                       201019 11.0     1.32     1.43     2.31     3.00
 -------------------------------------------------------------------------------

 The number of warnings for this run is : 1
 
 -------------------------------------------------------------------------------
  **** **** ******  **  PROGRAM ENDED AT                 2025-10-04 00:50:35.571
 ***** ** ***  *** **   PROGRAM RAN ON                                 n2lcn0129
 **    ****   ******    PROGRAM RAN BY                                  metdyn02
 ***** **    ** ** **   PROGRAM PROCESS ID                               3675691
  **** **  *******  **  PROGRAM STOPPED IN /scratch/hpc-prf-metdyn/metdyn02_Remi
                                           /14_hBN/aug-SZV-MOLOPT/GAPW/boxheight
                                           /12
