&GLOBAL
  PROJECT  hBN
  PRINT_LEVEL MEDIUM
  RUN_TYPE ENERGY
  &TIMINGS
     THRESHOLD 0.0001
  &END
&END GLOBAL
&FORCE_EVAL
  METHOD Quickstep
  &DFT
    BASIS_SET_FILE_NAME BASIS_MOLOPT
    BASIS_SET_FILE_NAME BASIS_MOLOPT_UZH
    BASIS_SET_FILE_NAME BASIS_MOLOPT_UCL
    BASIS_SET_FILE_NAME BASIS_PERIODIC_GW
    BASIS_SET_FILE_NAME /scratch/hpc-prf-metdyn/metdyn02_Remi/BASIS_AUG_MOLOPT/BASIS_GTH_MOLOPT_AUG_for_excited_states_RI
    BASIS_SET_FILE_NAME /scratch/hpc-prf-metdyn/metdyn02_Remi/BASIS_AUG_MOLOPT/BASIS_GTH_MOLOPT_AUG_for_excited_states
    SORT_BASIS EXP
    POTENTIAL_FILE_NAME  GTH_SOC_POTENTIALS 
    CHARGE 0
    &MGRID
      CUTOFF  500
      REL_CUTOFF  100
    &END MGRID
    &QS
      METHOD GAPW
      EPS_DEFAULT 1.0E-12
      EPS_PGF_ORB 1.0E-12
    &END QS
    &SCF
      SCF_GUESS ATOMIC
      EPS_SCF 1.0E-9
      MAX_SCF 500
      &PRINT
        &RESTART ON
        &END
      &END
      ADDED_MOS -1
      &MIXING
          METHOD BROYDEN_MIXING
          ALPHA 0.1
          BETA 1.5
          NBROYDEN 8
      &END
    &END SCF
    &XC
      &XC_FUNCTIONAL PBE
      &END XC_FUNCTIONAL
    &END XC
    &KPOINTS
      SCHEME MONKHORST-PACK 48 48 1
      PARALLEL_GROUP_SIZE   -1
    &END KPOINTS
  &END DFT
  &PROPERTIES
    &BANDSTRUCTURE
      &GW
        NUM_TIME_FREQ_POINTS         30
        MEMORY_PER_PROC              32
        EPS_FILTER              1.0E-11
        REGULARIZATION_RI        1.0E-1
        CUTOFF_RADIUS_RI            7.0
!        FREQ_MAX_FIT                27.211
!      	HEDIN_SHIFT                   T
        
      &END
!      &SOC
!ENERGY_WINDOW  40
!      &END
      &BANDSTRUCTURE_PATH
        NPOINTS 49
        SPECIAL_POINT GAMMA 0.0 0.0 0.0
        SPECIAL_POINT K     0.333333 0.333333 0.0
        SPECIAL_POINT M     0.0 0.5 0.0
        SPECIAL_POINT GAMMA 0.0 0.0 0.0
      &END
    &END
  &END PROPERTIES
  &SUBSYS
    &CELL
      ABC                 2.510 2.510 15.0
      ALPHA_BETA_GAMMA    90 90 120
      PERIODIC XY
    &END CELL
    
    &KIND B
      BASIS_SET ORB aug-SZV-MOLOPT-GTH-tier-2
      BASIS_SET RI_AUX RI_aug-SZV-MOLOPT-GTH-tier-2_N_RI_014_s_p_d_f_g_h_i_3_2_1_0_0_0_0_error_1.9e-05
      POTENTIAL        GTH-PBE-q3
    &END KIND

    &KIND N
      BASIS_SET ORB aug-SZV-MOLOPT-GTH-tier-2
      BASIS_SET RI_AUX RI_aug-SZV-MOLOPT-GTH-tier-2_N_RI_033_s_p_d_f_g_h_i_7_3_2_1_0_0_0_error_6.2e-05
      POTENTIAL        GTH-PBE-q5
    &END KIND

    &COORD
B        0.00000000       1.44930332       7.50000000
N        1.25513350       0.72465166       7.50000000
    &END COORD
  &END SUBSYS
&END FORCE_EVAL
