 DBCSR| CPU Multiplication driver                                           XSMM (U)
 DBCSR| Multrec recursion limit                                              512 (U)
 DBCSR| Multiplication stack size                                           1000 (D)
 DBCSR| Maximum elements for images                                    UNLIMITED (U)
 DBCSR| Multiplicative factor virtual images                                   1 (U)
 DBCSR| Use multiplication densification                                       T (D)
 DBCSR| Multiplication size stacks                                             3 (U)
 DBCSR| Use memory pool for CPU allocation                                     F (U)
 DBCSR| Number of 3D layers                                               SINGLE (U)
 DBCSR| Use MPI memory allocation                                              F (U)
 DBCSR| Use RMA algorithm                                                      F (U)
 DBCSR| Use Communication thread                                               T (U)
 DBCSR| Communication thread load                                             75 (D)
 DBCSR| MPI: My process id                                                     0
 DBCSR| MPI: Number of processes                                             128
 DBCSR| OMP: Current number of threads                                         4
 DBCSR| OMP: Max number of threads                                             4
 DBCSR| Split modifier for TAS multiplication algorithm                  1.0E+00 (U)


  **** **** ******  **  PROGRAM STARTED AT               2025-10-03 01:55:10.073
 ***** ** ***  *** **   PROGRAM STARTED ON                n2lcn0138.ab2021.local
 **    ****   ******    PROGRAM STARTED BY                              metdyn02
 ***** **    ** ** **   PROGRAM PROCESS ID                                 55612
  **** **  *******  **  PROGRAM STARTED IN /scratch/hpc-prf-metdyn/metdyn02_Remi
                                           /14_hBN/aug-SZV-MOLOPT/GAPW/kgrid/32

 CP2K| version string:                 CP2K version 2025.2 (Development Version)
 CP2K| source code revision number:                                  git:8d80afc
 CP2K| cp2kflags: omp libint fftw3 libxc libgrpp elpa parallel scalapack mpi_f08
 CP2K|             cosma xsmm plumed2 spglib libvori libbqb libvdwxc hdf5
 CP2K| is freely available from                            https://www.cp2k.org/
 CP2K| Program compiled at                         Mon Sep  8 11:02:08 CEST 2025
 CP2K| Program compiled on                                              n2login1
 CP2K| Program compiled for                                                local
 CP2K| Data directory path    /opt/software/pc2/EB-SW/software/CP2K/2025.2-foss-
 CP2K| Input file name                                                    GW.inp

 GLOBAL| Force Environment number                                              1
 GLOBAL| Basis set file name                                        BASIS_MOLOPT
 GLOBAL| Potential file name                                  GTH_SOC_POTENTIALS
 GLOBAL| MM Potential file name                                     MM_POTENTIAL
 GLOBAL| Coordinate file name                                      __STD_INPUT__
 GLOBAL| Method name                                                        CP2K
 GLOBAL| Project name                                                        hBN
 GLOBAL| Run type                                                         ENERGY
 GLOBAL| FFT library                                                       FFTW3
 GLOBAL| Diagonalization library                                            ELPA
 GLOBAL| Cholesky decomposition library                                ScaLAPACK
 GLOBAL| DGEMM library                                                      BLAS
 GLOBAL| Minimum number of eigenvectors for ELPA usage                        16
 GLOBAL| Orthonormality check for eigenvectors                          DISABLED
 GLOBAL| Matrix multiplication library                                     COSMA
 GLOBAL| All-to-all communication in single precision                          F
 GLOBAL| FFTs using library dependent lengths                                  F
 GLOBAL| Grid backend                                                       AUTO
 GLOBAL| Global print level                                               MEDIUM
 GLOBAL| MPI I/O enabled                                                       T
 GLOBAL| Total number of message passing processes                           128
 GLOBAL| Number of threads for this process                                    4
 GLOBAL| This output is from process                                           0
 GLOBAL| OpenMP stack size per thread (OMP_STACKSIZE)                    default
 GLOBAL| CPU model name                          AMD EPYC 7763 64-Core Processor
 GLOBAL| CPUID                                                              1002

 MEMORY| system memory details [Kb]
 MEMORY|                        rank 0           min           max       average
 MEMORY| MemTotal           1056620492    1056620456    1056620516    1056620490
 MEMORY| MemFree            1024347140    1022882808    1026055872    1024649044
 MEMORY| Buffers                 59244         59244        197612        104856
 MEMORY| Cached               18012352      15077356      18012352      16556720
 MEMORY| Slab                  2647260       2647260       5851888       4379596
 MEMORY| SReclaimable           785820        785820       2425856       1711963
 MEMORY| MemLikelyFree      1043204556    1042535060    1043616068    1043022584


 *** Fundamental physical constants (SI units) ***

 *** Literature: B. J. Mohr and B. N. Taylor,
 ***             CODATA recommended values of the fundamental physical
 ***             constants: 2006, Web Version 5.1
 ***             http://physics.nist.gov/constants

 Speed of light in vacuum [m/s]                             2.99792458000000E+08
 Magnetic constant or permeability of vacuum [N/A**2]       1.25663706143592E-06
 Electric constant or permittivity of vacuum [F/m]          8.85418781762039E-12
 Planck constant (h) [J*s]                                  6.62606896000000E-34
 Planck constant (h-bar) [J*s]                              1.05457162825177E-34
 Elementary charge [C]                                      1.60217648700000E-19
 Electron mass [kg]                                         9.10938215000000E-31
 Electron g factor [ ]                                     -2.00231930436220E+00
 Proton mass [kg]                                           1.67262163700000E-27
 Fine-structure constant                                    7.29735253760000E-03
 Rydberg constant [1/m]                                     1.09737315685270E+07
 Avogadro constant [1/mol]                                  6.02214179000000E+23
 Boltzmann constant [J/K]                                   1.38065040000000E-23
 Atomic mass unit [kg]                                      1.66053878200000E-27
 Bohr radius [m]                                            5.29177208590000E-11

 *** Conversion factors ***

 [u] -> [a.u.]                                              1.82288848426455E+03
 [Angstrom] -> [Bohr] = [a.u.]                              1.88972613288564E+00
 [a.u.] = [Bohr] -> [Angstrom]                              5.29177208590000E-01
 [a.u.] -> [s]                                              2.41888432650478E-17
 [a.u.] -> [fs]                                             2.41888432650478E-02
 [a.u.] -> [J]                                              4.35974393937059E-18
 [a.u.] -> [N]                                              8.23872205491840E-08
 [a.u.] -> [K]                                              3.15774647902944E+05
 [a.u.] -> [kJ/mol]                                         2.62549961709828E+03
 [a.u.] -> [kcal/mol]                                       6.27509468713739E+02
 [a.u.] -> [Pa]                                             2.94210107994716E+13
 [a.u.] -> [bar]                                            2.94210107994716E+08
 [a.u.] -> [atm]                                            2.90362800883016E+08
 [a.u.] -> [eV]                                             2.72113838565563E+01
 [a.u.] -> [Hz]                                             6.57968392072181E+15
 [a.u.] -> [1/cm] (wave numbers)                            2.19474631370540E+05
 [a.u./Bohr**2] -> [1/cm]                                   5.14048714338585E+03
 

 CELL_TOP| Volume [angstrom^3]:                                        81.840700
 CELL_TOP| Vector a [angstrom     2.510     0.000     0.000   |a| =     2.510000
 CELL_TOP| Vector b [angstrom    -1.255     2.174     0.000   |b| =     2.510000
 CELL_TOP| Vector c [angstrom     0.000     0.000    15.000   |c| =    15.000000
 CELL_TOP| Angle (b,c), alpha [degree]:                                90.000000
 CELL_TOP| Angle (a,c), beta  [degree]:                                90.000000
 CELL_TOP| Angle (a,b), gamma [degree]:                               120.000000
 CELL_TOP| Numerically orthorhombic:                                          NO
 CELL_TOP| Periodicity                                                        XY

 GENERATE|  Preliminary Number of Bonds generated:                             0
 GENERATE|  Achieved consistency in connectivity generation.

 CELL| Volume [angstrom^3]:                                            81.840700
 CELL| Vector a [angstrom]:       2.510     0.000     0.000   |a| =     2.510000
 CELL| Vector b [angstrom]:      -1.255     2.174     0.000   |b| =     2.510000
 CELL| Vector c [angstrom]:       0.000     0.000    15.000   |c| =    15.000000
 CELL| Angle (b,c), alpha [degree]:                                    90.000000
 CELL| Angle (a,c), beta  [degree]:                                    90.000000
 CELL| Angle (a,b), gamma [degree]:                                   120.000000
 CELL| Numerically orthorhombic:                                              NO
 CELL| Periodicity                                                            XY

 CELL_REF| Volume [angstrom^3]:                                        81.840700
 CELL_REF| Vector a [angstrom     2.510     0.000     0.000   |a| =     2.510000
 CELL_REF| Vector b [angstrom    -1.255     2.174     0.000   |b| =     2.510000
 CELL_REF| Vector c [angstrom     0.000     0.000    15.000   |c| =    15.000000
 CELL_REF| Angle (b,c), alpha [degree]:                                90.000000
 CELL_REF| Angle (a,c), beta  [degree]:                                90.000000
 CELL_REF| Angle (a,b), gamma [degree]:                               120.000000
 CELL_REF| Numerically orthorhombic:                                          NO
 CELL_REF| Periodicity                                                        XY

 *******************************************************************************
                                    Kpoints
 *******************************************************************************
 BRILLOUIN| K-point scheme                                        Monkhorst-Pack
 BRILLOUIN| K-Point grid                                            32   32    1
 BRILLOUIN| Accuracy in Symmetry determination                      0.100000E-05
 BRILLOUIN| K-Point point group symmetrization                               OFF
 BRILLOUIN| Wavefunction type                                            COMPLEX
 BRILLOUIN| List of Kpoints [2 Pi/Bohr]                                      512
 BRILLOUIN| Number           Weight            X              Y              Z
 BRILLOUIN|     1           0.00195       -0.48438       -0.48438        0.00000
 BRILLOUIN|     2           0.00195       -0.48438       -0.45312        0.00000
 BRILLOUIN|     3           0.00195       -0.48438       -0.42188        0.00000
 BRILLOUIN|     4           0.00195       -0.48438       -0.39062        0.00000
 BRILLOUIN|     5           0.00195       -0.48438       -0.35938        0.00000
 BRILLOUIN|     6           0.00195       -0.48438       -0.32812        0.00000
 BRILLOUIN|     7           0.00195       -0.48438       -0.29688        0.00000
 BRILLOUIN|     8           0.00195       -0.48438       -0.26562        0.00000
 BRILLOUIN|     9           0.00195       -0.48438       -0.23438        0.00000
 BRILLOUIN|    10           0.00195       -0.48438       -0.20312        0.00000
 BRILLOUIN|    11           0.00195       -0.48438       -0.17188        0.00000
 BRILLOUIN|    12           0.00195       -0.48438       -0.14062        0.00000
 BRILLOUIN|    13           0.00195       -0.48438       -0.10938        0.00000
 BRILLOUIN|    14           0.00195       -0.48438       -0.07812        0.00000
 BRILLOUIN|    15           0.00195       -0.48438       -0.04688        0.00000
 BRILLOUIN|    16           0.00195       -0.48438       -0.01562        0.00000
 BRILLOUIN|    17           0.00195       -0.48438        0.01562        0.00000
 BRILLOUIN|    18           0.00195       -0.48438        0.04688        0.00000
 BRILLOUIN|    19           0.00195       -0.48438        0.07812        0.00000
 BRILLOUIN|    20           0.00195       -0.48438        0.10938        0.00000
 BRILLOUIN|    21           0.00195       -0.48438        0.14062        0.00000
 BRILLOUIN|    22           0.00195       -0.48438        0.17188        0.00000
 BRILLOUIN|    23           0.00195       -0.48438        0.20312        0.00000
 BRILLOUIN|    24           0.00195       -0.48438        0.23438        0.00000
 BRILLOUIN|    25           0.00195       -0.48438        0.26562        0.00000
 BRILLOUIN|    26           0.00195       -0.48438        0.29688        0.00000
 BRILLOUIN|    27           0.00195       -0.48438        0.32812        0.00000
 BRILLOUIN|    28           0.00195       -0.48438        0.35938        0.00000
 BRILLOUIN|    29           0.00195       -0.48438        0.39062        0.00000
 BRILLOUIN|    30           0.00195       -0.48438        0.42188        0.00000
 BRILLOUIN|    31           0.00195       -0.48438        0.45312        0.00000
 BRILLOUIN|    32           0.00195       -0.48438        0.48438        0.00000
 BRILLOUIN|    33           0.00195       -0.45312       -0.48438        0.00000
 BRILLOUIN|    34           0.00195       -0.45312       -0.45312        0.00000
 BRILLOUIN|    35           0.00195       -0.45312       -0.42188        0.00000
 BRILLOUIN|    36           0.00195       -0.45312       -0.39062        0.00000
 BRILLOUIN|    37           0.00195       -0.45312       -0.35938        0.00000
 BRILLOUIN|    38           0.00195       -0.45312       -0.32812        0.00000
 BRILLOUIN|    39           0.00195       -0.45312       -0.29688        0.00000
 BRILLOUIN|    40           0.00195       -0.45312       -0.26562        0.00000
 BRILLOUIN|    41           0.00195       -0.45312       -0.23438        0.00000
 BRILLOUIN|    42           0.00195       -0.45312       -0.20312        0.00000
 BRILLOUIN|    43           0.00195       -0.45312       -0.17188        0.00000
 BRILLOUIN|    44           0.00195       -0.45312       -0.14062        0.00000
 BRILLOUIN|    45           0.00195       -0.45312       -0.10938        0.00000
 BRILLOUIN|    46           0.00195       -0.45312       -0.07812        0.00000
 BRILLOUIN|    47           0.00195       -0.45312       -0.04688        0.00000
 BRILLOUIN|    48           0.00195       -0.45312       -0.01562        0.00000
 BRILLOUIN|    49           0.00195       -0.45312        0.01562        0.00000
 BRILLOUIN|    50           0.00195       -0.45312        0.04688        0.00000
 BRILLOUIN|    51           0.00195       -0.45312        0.07812        0.00000
 BRILLOUIN|    52           0.00195       -0.45312        0.10938        0.00000
 BRILLOUIN|    53           0.00195       -0.45312        0.14062        0.00000
 BRILLOUIN|    54           0.00195       -0.45312        0.17188        0.00000
 BRILLOUIN|    55           0.00195       -0.45312        0.20312        0.00000
 BRILLOUIN|    56           0.00195       -0.45312        0.23438        0.00000
 BRILLOUIN|    57           0.00195       -0.45312        0.26562        0.00000
 BRILLOUIN|    58           0.00195       -0.45312        0.29688        0.00000
 BRILLOUIN|    59           0.00195       -0.45312        0.32812        0.00000
 BRILLOUIN|    60           0.00195       -0.45312        0.35938        0.00000
 BRILLOUIN|    61           0.00195       -0.45312        0.39062        0.00000
 BRILLOUIN|    62           0.00195       -0.45312        0.42188        0.00000
 BRILLOUIN|    63           0.00195       -0.45312        0.45312        0.00000
 BRILLOUIN|    64           0.00195       -0.45312        0.48438        0.00000
 BRILLOUIN|    65           0.00195       -0.42188       -0.48438        0.00000
 BRILLOUIN|    66           0.00195       -0.42188       -0.45312        0.00000
 BRILLOUIN|    67           0.00195       -0.42188       -0.42188        0.00000
 BRILLOUIN|    68           0.00195       -0.42188       -0.39062        0.00000
 BRILLOUIN|    69           0.00195       -0.42188       -0.35938        0.00000
 BRILLOUIN|    70           0.00195       -0.42188       -0.32812        0.00000
 BRILLOUIN|    71           0.00195       -0.42188       -0.29688        0.00000
 BRILLOUIN|    72           0.00195       -0.42188       -0.26562        0.00000
 BRILLOUIN|    73           0.00195       -0.42188       -0.23438        0.00000
 BRILLOUIN|    74           0.00195       -0.42188       -0.20312        0.00000
 BRILLOUIN|    75           0.00195       -0.42188       -0.17188        0.00000
 BRILLOUIN|    76           0.00195       -0.42188       -0.14062        0.00000
 BRILLOUIN|    77           0.00195       -0.42188       -0.10938        0.00000
 BRILLOUIN|    78           0.00195       -0.42188       -0.07812        0.00000
 BRILLOUIN|    79           0.00195       -0.42188       -0.04688        0.00000
 BRILLOUIN|    80           0.00195       -0.42188       -0.01562        0.00000
 BRILLOUIN|    81           0.00195       -0.42188        0.01562        0.00000
 BRILLOUIN|    82           0.00195       -0.42188        0.04688        0.00000
 BRILLOUIN|    83           0.00195       -0.42188        0.07812        0.00000
 BRILLOUIN|    84           0.00195       -0.42188        0.10938        0.00000
 BRILLOUIN|    85           0.00195       -0.42188        0.14062        0.00000
 BRILLOUIN|    86           0.00195       -0.42188        0.17188        0.00000
 BRILLOUIN|    87           0.00195       -0.42188        0.20312        0.00000
 BRILLOUIN|    88           0.00195       -0.42188        0.23438        0.00000
 BRILLOUIN|    89           0.00195       -0.42188        0.26562        0.00000
 BRILLOUIN|    90           0.00195       -0.42188        0.29688        0.00000
 BRILLOUIN|    91           0.00195       -0.42188        0.32812        0.00000
 BRILLOUIN|    92           0.00195       -0.42188        0.35938        0.00000
 BRILLOUIN|    93           0.00195       -0.42188        0.39062        0.00000
 BRILLOUIN|    94           0.00195       -0.42188        0.42188        0.00000
 BRILLOUIN|    95           0.00195       -0.42188        0.45312        0.00000
 BRILLOUIN|    96           0.00195       -0.42188        0.48438        0.00000
 BRILLOUIN|    97           0.00195       -0.39062       -0.48438        0.00000
 BRILLOUIN|    98           0.00195       -0.39062       -0.45312        0.00000
 BRILLOUIN|    99           0.00195       -0.39062       -0.42188        0.00000
 BRILLOUIN|   100           0.00195       -0.39062       -0.39062        0.00000
 BRILLOUIN|   101           0.00195       -0.39062       -0.35938        0.00000
 BRILLOUIN|   102           0.00195       -0.39062       -0.32812        0.00000
 BRILLOUIN|   103           0.00195       -0.39062       -0.29688        0.00000
 BRILLOUIN|   104           0.00195       -0.39062       -0.26562        0.00000
 BRILLOUIN|   105           0.00195       -0.39062       -0.23438        0.00000
 BRILLOUIN|   106           0.00195       -0.39062       -0.20312        0.00000
 BRILLOUIN|   107           0.00195       -0.39062       -0.17188        0.00000
 BRILLOUIN|   108           0.00195       -0.39062       -0.14062        0.00000
 BRILLOUIN|   109           0.00195       -0.39062       -0.10938        0.00000
 BRILLOUIN|   110           0.00195       -0.39062       -0.07812        0.00000
 BRILLOUIN|   111           0.00195       -0.39062       -0.04688        0.00000
 BRILLOUIN|   112           0.00195       -0.39062       -0.01562        0.00000
 BRILLOUIN|   113           0.00195       -0.39062        0.01562        0.00000
 BRILLOUIN|   114           0.00195       -0.39062        0.04688        0.00000
 BRILLOUIN|   115           0.00195       -0.39062        0.07812        0.00000
 BRILLOUIN|   116           0.00195       -0.39062        0.10938        0.00000
 BRILLOUIN|   117           0.00195       -0.39062        0.14062        0.00000
 BRILLOUIN|   118           0.00195       -0.39062        0.17188        0.00000
 BRILLOUIN|   119           0.00195       -0.39062        0.20312        0.00000
 BRILLOUIN|   120           0.00195       -0.39062        0.23438        0.00000
 BRILLOUIN|   121           0.00195       -0.39062        0.26562        0.00000
 BRILLOUIN|   122           0.00195       -0.39062        0.29688        0.00000
 BRILLOUIN|   123           0.00195       -0.39062        0.32812        0.00000
 BRILLOUIN|   124           0.00195       -0.39062        0.35938        0.00000
 BRILLOUIN|   125           0.00195       -0.39062        0.39062        0.00000
 BRILLOUIN|   126           0.00195       -0.39062        0.42188        0.00000
 BRILLOUIN|   127           0.00195       -0.39062        0.45312        0.00000
 BRILLOUIN|   128           0.00195       -0.39062        0.48438        0.00000
 BRILLOUIN|   129           0.00195       -0.35938       -0.48438        0.00000
 BRILLOUIN|   130           0.00195       -0.35938       -0.45312        0.00000
 BRILLOUIN|   131           0.00195       -0.35938       -0.42188        0.00000
 BRILLOUIN|   132           0.00195       -0.35938       -0.39062        0.00000
 BRILLOUIN|   133           0.00195       -0.35938       -0.35938        0.00000
 BRILLOUIN|   134           0.00195       -0.35938       -0.32812        0.00000
 BRILLOUIN|   135           0.00195       -0.35938       -0.29688        0.00000
 BRILLOUIN|   136           0.00195       -0.35938       -0.26562        0.00000
 BRILLOUIN|   137           0.00195       -0.35938       -0.23438        0.00000
 BRILLOUIN|   138           0.00195       -0.35938       -0.20312        0.00000
 BRILLOUIN|   139           0.00195       -0.35938       -0.17188        0.00000
 BRILLOUIN|   140           0.00195       -0.35938       -0.14062        0.00000
 BRILLOUIN|   141           0.00195       -0.35938       -0.10938        0.00000
 BRILLOUIN|   142           0.00195       -0.35938       -0.07812        0.00000
 BRILLOUIN|   143           0.00195       -0.35938       -0.04688        0.00000
 BRILLOUIN|   144           0.00195       -0.35938       -0.01562        0.00000
 BRILLOUIN|   145           0.00195       -0.35938        0.01562        0.00000
 BRILLOUIN|   146           0.00195       -0.35938        0.04688        0.00000
 BRILLOUIN|   147           0.00195       -0.35938        0.07812        0.00000
 BRILLOUIN|   148           0.00195       -0.35938        0.10938        0.00000
 BRILLOUIN|   149           0.00195       -0.35938        0.14062        0.00000
 BRILLOUIN|   150           0.00195       -0.35938        0.17188        0.00000
 BRILLOUIN|   151           0.00195       -0.35938        0.20312        0.00000
 BRILLOUIN|   152           0.00195       -0.35938        0.23438        0.00000
 BRILLOUIN|   153           0.00195       -0.35938        0.26562        0.00000
 BRILLOUIN|   154           0.00195       -0.35938        0.29688        0.00000
 BRILLOUIN|   155           0.00195       -0.35938        0.32812        0.00000
 BRILLOUIN|   156           0.00195       -0.35938        0.35938        0.00000
 BRILLOUIN|   157           0.00195       -0.35938        0.39062        0.00000
 BRILLOUIN|   158           0.00195       -0.35938        0.42188        0.00000
 BRILLOUIN|   159           0.00195       -0.35938        0.45312        0.00000
 BRILLOUIN|   160           0.00195       -0.35938        0.48438        0.00000
 BRILLOUIN|   161           0.00195       -0.32812       -0.48438        0.00000
 BRILLOUIN|   162           0.00195       -0.32812       -0.45312        0.00000
 BRILLOUIN|   163           0.00195       -0.32812       -0.42188        0.00000
 BRILLOUIN|   164           0.00195       -0.32812       -0.39062        0.00000
 BRILLOUIN|   165           0.00195       -0.32812       -0.35938        0.00000
 BRILLOUIN|   166           0.00195       -0.32812       -0.32812        0.00000
 BRILLOUIN|   167           0.00195       -0.32812       -0.29688        0.00000
 BRILLOUIN|   168           0.00195       -0.32812       -0.26562        0.00000
 BRILLOUIN|   169           0.00195       -0.32812       -0.23438        0.00000
 BRILLOUIN|   170           0.00195       -0.32812       -0.20312        0.00000
 BRILLOUIN|   171           0.00195       -0.32812       -0.17188        0.00000
 BRILLOUIN|   172           0.00195       -0.32812       -0.14062        0.00000
 BRILLOUIN|   173           0.00195       -0.32812       -0.10938        0.00000
 BRILLOUIN|   174           0.00195       -0.32812       -0.07812        0.00000
 BRILLOUIN|   175           0.00195       -0.32812       -0.04688        0.00000
 BRILLOUIN|   176           0.00195       -0.32812       -0.01562        0.00000
 BRILLOUIN|   177           0.00195       -0.32812        0.01562        0.00000
 BRILLOUIN|   178           0.00195       -0.32812        0.04688        0.00000
 BRILLOUIN|   179           0.00195       -0.32812        0.07812        0.00000
 BRILLOUIN|   180           0.00195       -0.32812        0.10938        0.00000
 BRILLOUIN|   181           0.00195       -0.32812        0.14062        0.00000
 BRILLOUIN|   182           0.00195       -0.32812        0.17188        0.00000
 BRILLOUIN|   183           0.00195       -0.32812        0.20312        0.00000
 BRILLOUIN|   184           0.00195       -0.32812        0.23438        0.00000
 BRILLOUIN|   185           0.00195       -0.32812        0.26562        0.00000
 BRILLOUIN|   186           0.00195       -0.32812        0.29688        0.00000
 BRILLOUIN|   187           0.00195       -0.32812        0.32812        0.00000
 BRILLOUIN|   188           0.00195       -0.32812        0.35938        0.00000
 BRILLOUIN|   189           0.00195       -0.32812        0.39062        0.00000
 BRILLOUIN|   190           0.00195       -0.32812        0.42188        0.00000
 BRILLOUIN|   191           0.00195       -0.32812        0.45312        0.00000
 BRILLOUIN|   192           0.00195       -0.32812        0.48438        0.00000
 BRILLOUIN|   193           0.00195       -0.29688       -0.48438        0.00000
 BRILLOUIN|   194           0.00195       -0.29688       -0.45312        0.00000
 BRILLOUIN|   195           0.00195       -0.29688       -0.42188        0.00000
 BRILLOUIN|   196           0.00195       -0.29688       -0.39062        0.00000
 BRILLOUIN|   197           0.00195       -0.29688       -0.35938        0.00000
 BRILLOUIN|   198           0.00195       -0.29688       -0.32812        0.00000
 BRILLOUIN|   199           0.00195       -0.29688       -0.29688        0.00000
 BRILLOUIN|   200           0.00195       -0.29688       -0.26562        0.00000
 BRILLOUIN|   201           0.00195       -0.29688       -0.23438        0.00000
 BRILLOUIN|   202           0.00195       -0.29688       -0.20312        0.00000
 BRILLOUIN|   203           0.00195       -0.29688       -0.17188        0.00000
 BRILLOUIN|   204           0.00195       -0.29688       -0.14062        0.00000
 BRILLOUIN|   205           0.00195       -0.29688       -0.10938        0.00000
 BRILLOUIN|   206           0.00195       -0.29688       -0.07812        0.00000
 BRILLOUIN|   207           0.00195       -0.29688       -0.04688        0.00000
 BRILLOUIN|   208           0.00195       -0.29688       -0.01562        0.00000
 BRILLOUIN|   209           0.00195       -0.29688        0.01562        0.00000
 BRILLOUIN|   210           0.00195       -0.29688        0.04688        0.00000
 BRILLOUIN|   211           0.00195       -0.29688        0.07812        0.00000
 BRILLOUIN|   212           0.00195       -0.29688        0.10938        0.00000
 BRILLOUIN|   213           0.00195       -0.29688        0.14062        0.00000
 BRILLOUIN|   214           0.00195       -0.29688        0.17188        0.00000
 BRILLOUIN|   215           0.00195       -0.29688        0.20312        0.00000
 BRILLOUIN|   216           0.00195       -0.29688        0.23438        0.00000
 BRILLOUIN|   217           0.00195       -0.29688        0.26562        0.00000
 BRILLOUIN|   218           0.00195       -0.29688        0.29688        0.00000
 BRILLOUIN|   219           0.00195       -0.29688        0.32812        0.00000
 BRILLOUIN|   220           0.00195       -0.29688        0.35938        0.00000
 BRILLOUIN|   221           0.00195       -0.29688        0.39062        0.00000
 BRILLOUIN|   222           0.00195       -0.29688        0.42188        0.00000
 BRILLOUIN|   223           0.00195       -0.29688        0.45312        0.00000
 BRILLOUIN|   224           0.00195       -0.29688        0.48438        0.00000
 BRILLOUIN|   225           0.00195       -0.26562       -0.48438        0.00000
 BRILLOUIN|   226           0.00195       -0.26562       -0.45312        0.00000
 BRILLOUIN|   227           0.00195       -0.26562       -0.42188        0.00000
 BRILLOUIN|   228           0.00195       -0.26562       -0.39062        0.00000
 BRILLOUIN|   229           0.00195       -0.26562       -0.35938        0.00000
 BRILLOUIN|   230           0.00195       -0.26562       -0.32812        0.00000
 BRILLOUIN|   231           0.00195       -0.26562       -0.29688        0.00000
 BRILLOUIN|   232           0.00195       -0.26562       -0.26562        0.00000
 BRILLOUIN|   233           0.00195       -0.26562       -0.23438        0.00000
 BRILLOUIN|   234           0.00195       -0.26562       -0.20312        0.00000
 BRILLOUIN|   235           0.00195       -0.26562       -0.17188        0.00000
 BRILLOUIN|   236           0.00195       -0.26562       -0.14062        0.00000
 BRILLOUIN|   237           0.00195       -0.26562       -0.10938        0.00000
 BRILLOUIN|   238           0.00195       -0.26562       -0.07812        0.00000
 BRILLOUIN|   239           0.00195       -0.26562       -0.04688        0.00000
 BRILLOUIN|   240           0.00195       -0.26562       -0.01562        0.00000
 BRILLOUIN|   241           0.00195       -0.26562        0.01562        0.00000
 BRILLOUIN|   242           0.00195       -0.26562        0.04688        0.00000
 BRILLOUIN|   243           0.00195       -0.26562        0.07812        0.00000
 BRILLOUIN|   244           0.00195       -0.26562        0.10938        0.00000
 BRILLOUIN|   245           0.00195       -0.26562        0.14062        0.00000
 BRILLOUIN|   246           0.00195       -0.26562        0.17188        0.00000
 BRILLOUIN|   247           0.00195       -0.26562        0.20312        0.00000
 BRILLOUIN|   248           0.00195       -0.26562        0.23438        0.00000
 BRILLOUIN|   249           0.00195       -0.26562        0.26562        0.00000
 BRILLOUIN|   250           0.00195       -0.26562        0.29688        0.00000
 BRILLOUIN|   251           0.00195       -0.26562        0.32812        0.00000
 BRILLOUIN|   252           0.00195       -0.26562        0.35938        0.00000
 BRILLOUIN|   253           0.00195       -0.26562        0.39062        0.00000
 BRILLOUIN|   254           0.00195       -0.26562        0.42188        0.00000
 BRILLOUIN|   255           0.00195       -0.26562        0.45312        0.00000
 BRILLOUIN|   256           0.00195       -0.26562        0.48438        0.00000
 BRILLOUIN|   257           0.00195       -0.23438       -0.48438        0.00000
 BRILLOUIN|   258           0.00195       -0.23438       -0.45312        0.00000
 BRILLOUIN|   259           0.00195       -0.23438       -0.42188        0.00000
 BRILLOUIN|   260           0.00195       -0.23438       -0.39062        0.00000
 BRILLOUIN|   261           0.00195       -0.23438       -0.35938        0.00000
 BRILLOUIN|   262           0.00195       -0.23438       -0.32812        0.00000
 BRILLOUIN|   263           0.00195       -0.23438       -0.29688        0.00000
 BRILLOUIN|   264           0.00195       -0.23438       -0.26562        0.00000
 BRILLOUIN|   265           0.00195       -0.23438       -0.23438        0.00000
 BRILLOUIN|   266           0.00195       -0.23438       -0.20312        0.00000
 BRILLOUIN|   267           0.00195       -0.23438       -0.17188        0.00000
 BRILLOUIN|   268           0.00195       -0.23438       -0.14062        0.00000
 BRILLOUIN|   269           0.00195       -0.23438       -0.10938        0.00000
 BRILLOUIN|   270           0.00195       -0.23438       -0.07812        0.00000
 BRILLOUIN|   271           0.00195       -0.23438       -0.04688        0.00000
 BRILLOUIN|   272           0.00195       -0.23438       -0.01562        0.00000
 BRILLOUIN|   273           0.00195       -0.23438        0.01562        0.00000
 BRILLOUIN|   274           0.00195       -0.23438        0.04688        0.00000
 BRILLOUIN|   275           0.00195       -0.23438        0.07812        0.00000
 BRILLOUIN|   276           0.00195       -0.23438        0.10938        0.00000
 BRILLOUIN|   277           0.00195       -0.23438        0.14062        0.00000
 BRILLOUIN|   278           0.00195       -0.23438        0.17188        0.00000
 BRILLOUIN|   279           0.00195       -0.23438        0.20312        0.00000
 BRILLOUIN|   280           0.00195       -0.23438        0.23438        0.00000
 BRILLOUIN|   281           0.00195       -0.23438        0.26562        0.00000
 BRILLOUIN|   282           0.00195       -0.23438        0.29688        0.00000
 BRILLOUIN|   283           0.00195       -0.23438        0.32812        0.00000
 BRILLOUIN|   284           0.00195       -0.23438        0.35938        0.00000
 BRILLOUIN|   285           0.00195       -0.23438        0.39062        0.00000
 BRILLOUIN|   286           0.00195       -0.23438        0.42188        0.00000
 BRILLOUIN|   287           0.00195       -0.23438        0.45312        0.00000
 BRILLOUIN|   288           0.00195       -0.23438        0.48438        0.00000
 BRILLOUIN|   289           0.00195       -0.20312       -0.48438        0.00000
 BRILLOUIN|   290           0.00195       -0.20312       -0.45312        0.00000
 BRILLOUIN|   291           0.00195       -0.20312       -0.42188        0.00000
 BRILLOUIN|   292           0.00195       -0.20312       -0.39062        0.00000
 BRILLOUIN|   293           0.00195       -0.20312       -0.35938        0.00000
 BRILLOUIN|   294           0.00195       -0.20312       -0.32812        0.00000
 BRILLOUIN|   295           0.00195       -0.20312       -0.29688        0.00000
 BRILLOUIN|   296           0.00195       -0.20312       -0.26562        0.00000
 BRILLOUIN|   297           0.00195       -0.20312       -0.23438        0.00000
 BRILLOUIN|   298           0.00195       -0.20312       -0.20312        0.00000
 BRILLOUIN|   299           0.00195       -0.20312       -0.17188        0.00000
 BRILLOUIN|   300           0.00195       -0.20312       -0.14062        0.00000
 BRILLOUIN|   301           0.00195       -0.20312       -0.10938        0.00000
 BRILLOUIN|   302           0.00195       -0.20312       -0.07812        0.00000
 BRILLOUIN|   303           0.00195       -0.20312       -0.04688        0.00000
 BRILLOUIN|   304           0.00195       -0.20312       -0.01562        0.00000
 BRILLOUIN|   305           0.00195       -0.20312        0.01562        0.00000
 BRILLOUIN|   306           0.00195       -0.20312        0.04688        0.00000
 BRILLOUIN|   307           0.00195       -0.20312        0.07812        0.00000
 BRILLOUIN|   308           0.00195       -0.20312        0.10938        0.00000
 BRILLOUIN|   309           0.00195       -0.20312        0.14062        0.00000
 BRILLOUIN|   310           0.00195       -0.20312        0.17188        0.00000
 BRILLOUIN|   311           0.00195       -0.20312        0.20312        0.00000
 BRILLOUIN|   312           0.00195       -0.20312        0.23438        0.00000
 BRILLOUIN|   313           0.00195       -0.20312        0.26562        0.00000
 BRILLOUIN|   314           0.00195       -0.20312        0.29688        0.00000
 BRILLOUIN|   315           0.00195       -0.20312        0.32812        0.00000
 BRILLOUIN|   316           0.00195       -0.20312        0.35938        0.00000
 BRILLOUIN|   317           0.00195       -0.20312        0.39062        0.00000
 BRILLOUIN|   318           0.00195       -0.20312        0.42188        0.00000
 BRILLOUIN|   319           0.00195       -0.20312        0.45312        0.00000
 BRILLOUIN|   320           0.00195       -0.20312        0.48438        0.00000
 BRILLOUIN|   321           0.00195       -0.17188       -0.48438        0.00000
 BRILLOUIN|   322           0.00195       -0.17188       -0.45312        0.00000
 BRILLOUIN|   323           0.00195       -0.17188       -0.42188        0.00000
 BRILLOUIN|   324           0.00195       -0.17188       -0.39062        0.00000
 BRILLOUIN|   325           0.00195       -0.17188       -0.35938        0.00000
 BRILLOUIN|   326           0.00195       -0.17188       -0.32812        0.00000
 BRILLOUIN|   327           0.00195       -0.17188       -0.29688        0.00000
 BRILLOUIN|   328           0.00195       -0.17188       -0.26562        0.00000
 BRILLOUIN|   329           0.00195       -0.17188       -0.23438        0.00000
 BRILLOUIN|   330           0.00195       -0.17188       -0.20312        0.00000
 BRILLOUIN|   331           0.00195       -0.17188       -0.17188        0.00000
 BRILLOUIN|   332           0.00195       -0.17188       -0.14062        0.00000
 BRILLOUIN|   333           0.00195       -0.17188       -0.10938        0.00000
 BRILLOUIN|   334           0.00195       -0.17188       -0.07812        0.00000
 BRILLOUIN|   335           0.00195       -0.17188       -0.04688        0.00000
 BRILLOUIN|   336           0.00195       -0.17188       -0.01562        0.00000
 BRILLOUIN|   337           0.00195       -0.17188        0.01562        0.00000
 BRILLOUIN|   338           0.00195       -0.17188        0.04688        0.00000
 BRILLOUIN|   339           0.00195       -0.17188        0.07812        0.00000
 BRILLOUIN|   340           0.00195       -0.17188        0.10938        0.00000
 BRILLOUIN|   341           0.00195       -0.17188        0.14062        0.00000
 BRILLOUIN|   342           0.00195       -0.17188        0.17188        0.00000
 BRILLOUIN|   343           0.00195       -0.17188        0.20312        0.00000
 BRILLOUIN|   344           0.00195       -0.17188        0.23438        0.00000
 BRILLOUIN|   345           0.00195       -0.17188        0.26562        0.00000
 BRILLOUIN|   346           0.00195       -0.17188        0.29688        0.00000
 BRILLOUIN|   347           0.00195       -0.17188        0.32812        0.00000
 BRILLOUIN|   348           0.00195       -0.17188        0.35938        0.00000
 BRILLOUIN|   349           0.00195       -0.17188        0.39062        0.00000
 BRILLOUIN|   350           0.00195       -0.17188        0.42188        0.00000
 BRILLOUIN|   351           0.00195       -0.17188        0.45312        0.00000
 BRILLOUIN|   352           0.00195       -0.17188        0.48438        0.00000
 BRILLOUIN|   353           0.00195       -0.14062       -0.48438        0.00000
 BRILLOUIN|   354           0.00195       -0.14062       -0.45312        0.00000
 BRILLOUIN|   355           0.00195       -0.14062       -0.42188        0.00000
 BRILLOUIN|   356           0.00195       -0.14062       -0.39062        0.00000
 BRILLOUIN|   357           0.00195       -0.14062       -0.35938        0.00000
 BRILLOUIN|   358           0.00195       -0.14062       -0.32812        0.00000
 BRILLOUIN|   359           0.00195       -0.14062       -0.29688        0.00000
 BRILLOUIN|   360           0.00195       -0.14062       -0.26562        0.00000
 BRILLOUIN|   361           0.00195       -0.14062       -0.23438        0.00000
 BRILLOUIN|   362           0.00195       -0.14062       -0.20312        0.00000
 BRILLOUIN|   363           0.00195       -0.14062       -0.17188        0.00000
 BRILLOUIN|   364           0.00195       -0.14062       -0.14062        0.00000
 BRILLOUIN|   365           0.00195       -0.14062       -0.10938        0.00000
 BRILLOUIN|   366           0.00195       -0.14062       -0.07812        0.00000
 BRILLOUIN|   367           0.00195       -0.14062       -0.04688        0.00000
 BRILLOUIN|   368           0.00195       -0.14062       -0.01562        0.00000
 BRILLOUIN|   369           0.00195       -0.14062        0.01562        0.00000
 BRILLOUIN|   370           0.00195       -0.14062        0.04688        0.00000
 BRILLOUIN|   371           0.00195       -0.14062        0.07812        0.00000
 BRILLOUIN|   372           0.00195       -0.14062        0.10938        0.00000
 BRILLOUIN|   373           0.00195       -0.14062        0.14062        0.00000
 BRILLOUIN|   374           0.00195       -0.14062        0.17188        0.00000
 BRILLOUIN|   375           0.00195       -0.14062        0.20312        0.00000
 BRILLOUIN|   376           0.00195       -0.14062        0.23438        0.00000
 BRILLOUIN|   377           0.00195       -0.14062        0.26562        0.00000
 BRILLOUIN|   378           0.00195       -0.14062        0.29688        0.00000
 BRILLOUIN|   379           0.00195       -0.14062        0.32812        0.00000
 BRILLOUIN|   380           0.00195       -0.14062        0.35938        0.00000
 BRILLOUIN|   381           0.00195       -0.14062        0.39062        0.00000
 BRILLOUIN|   382           0.00195       -0.14062        0.42188        0.00000
 BRILLOUIN|   383           0.00195       -0.14062        0.45312        0.00000
 BRILLOUIN|   384           0.00195       -0.14062        0.48438        0.00000
 BRILLOUIN|   385           0.00195       -0.10938       -0.48438        0.00000
 BRILLOUIN|   386           0.00195       -0.10938       -0.45312        0.00000
 BRILLOUIN|   387           0.00195       -0.10938       -0.42188        0.00000
 BRILLOUIN|   388           0.00195       -0.10938       -0.39062        0.00000
 BRILLOUIN|   389           0.00195       -0.10938       -0.35938        0.00000
 BRILLOUIN|   390           0.00195       -0.10938       -0.32812        0.00000
 BRILLOUIN|   391           0.00195       -0.10938       -0.29688        0.00000
 BRILLOUIN|   392           0.00195       -0.10938       -0.26562        0.00000
 BRILLOUIN|   393           0.00195       -0.10938       -0.23438        0.00000
 BRILLOUIN|   394           0.00195       -0.10938       -0.20312        0.00000
 BRILLOUIN|   395           0.00195       -0.10938       -0.17188        0.00000
 BRILLOUIN|   396           0.00195       -0.10938       -0.14062        0.00000
 BRILLOUIN|   397           0.00195       -0.10938       -0.10938        0.00000
 BRILLOUIN|   398           0.00195       -0.10938       -0.07812        0.00000
 BRILLOUIN|   399           0.00195       -0.10938       -0.04688        0.00000
 BRILLOUIN|   400           0.00195       -0.10938       -0.01562        0.00000
 BRILLOUIN|   401           0.00195       -0.10938        0.01562        0.00000
 BRILLOUIN|   402           0.00195       -0.10938        0.04688        0.00000
 BRILLOUIN|   403           0.00195       -0.10938        0.07812        0.00000
 BRILLOUIN|   404           0.00195       -0.10938        0.10938        0.00000
 BRILLOUIN|   405           0.00195       -0.10938        0.14062        0.00000
 BRILLOUIN|   406           0.00195       -0.10938        0.17188        0.00000
 BRILLOUIN|   407           0.00195       -0.10938        0.20312        0.00000
 BRILLOUIN|   408           0.00195       -0.10938        0.23438        0.00000
 BRILLOUIN|   409           0.00195       -0.10938        0.26562        0.00000
 BRILLOUIN|   410           0.00195       -0.10938        0.29688        0.00000
 BRILLOUIN|   411           0.00195       -0.10938        0.32812        0.00000
 BRILLOUIN|   412           0.00195       -0.10938        0.35938        0.00000
 BRILLOUIN|   413           0.00195       -0.10938        0.39062        0.00000
 BRILLOUIN|   414           0.00195       -0.10938        0.42188        0.00000
 BRILLOUIN|   415           0.00195       -0.10938        0.45312        0.00000
 BRILLOUIN|   416           0.00195       -0.10938        0.48438        0.00000
 BRILLOUIN|   417           0.00195       -0.07812       -0.48438        0.00000
 BRILLOUIN|   418           0.00195       -0.07812       -0.45312        0.00000
 BRILLOUIN|   419           0.00195       -0.07812       -0.42188        0.00000
 BRILLOUIN|   420           0.00195       -0.07812       -0.39062        0.00000
 BRILLOUIN|   421           0.00195       -0.07812       -0.35938        0.00000
 BRILLOUIN|   422           0.00195       -0.07812       -0.32812        0.00000
 BRILLOUIN|   423           0.00195       -0.07812       -0.29688        0.00000
 BRILLOUIN|   424           0.00195       -0.07812       -0.26562        0.00000
 BRILLOUIN|   425           0.00195       -0.07812       -0.23438        0.00000
 BRILLOUIN|   426           0.00195       -0.07812       -0.20312        0.00000
 BRILLOUIN|   427           0.00195       -0.07812       -0.17188        0.00000
 BRILLOUIN|   428           0.00195       -0.07812       -0.14062        0.00000
 BRILLOUIN|   429           0.00195       -0.07812       -0.10938        0.00000
 BRILLOUIN|   430           0.00195       -0.07812       -0.07812        0.00000
 BRILLOUIN|   431           0.00195       -0.07812       -0.04688        0.00000
 BRILLOUIN|   432           0.00195       -0.07812       -0.01562        0.00000
 BRILLOUIN|   433           0.00195       -0.07812        0.01562        0.00000
 BRILLOUIN|   434           0.00195       -0.07812        0.04688        0.00000
 BRILLOUIN|   435           0.00195       -0.07812        0.07812        0.00000
 BRILLOUIN|   436           0.00195       -0.07812        0.10938        0.00000
 BRILLOUIN|   437           0.00195       -0.07812        0.14062        0.00000
 BRILLOUIN|   438           0.00195       -0.07812        0.17188        0.00000
 BRILLOUIN|   439           0.00195       -0.07812        0.20312        0.00000
 BRILLOUIN|   440           0.00195       -0.07812        0.23438        0.00000
 BRILLOUIN|   441           0.00195       -0.07812        0.26562        0.00000
 BRILLOUIN|   442           0.00195       -0.07812        0.29688        0.00000
 BRILLOUIN|   443           0.00195       -0.07812        0.32812        0.00000
 BRILLOUIN|   444           0.00195       -0.07812        0.35938        0.00000
 BRILLOUIN|   445           0.00195       -0.07812        0.39062        0.00000
 BRILLOUIN|   446           0.00195       -0.07812        0.42188        0.00000
 BRILLOUIN|   447           0.00195       -0.07812        0.45312        0.00000
 BRILLOUIN|   448           0.00195       -0.07812        0.48438        0.00000
 BRILLOUIN|   449           0.00195       -0.04688       -0.48438        0.00000
 BRILLOUIN|   450           0.00195       -0.04688       -0.45312        0.00000
 BRILLOUIN|   451           0.00195       -0.04688       -0.42188        0.00000
 BRILLOUIN|   452           0.00195       -0.04688       -0.39062        0.00000
 BRILLOUIN|   453           0.00195       -0.04688       -0.35938        0.00000
 BRILLOUIN|   454           0.00195       -0.04688       -0.32812        0.00000
 BRILLOUIN|   455           0.00195       -0.04688       -0.29688        0.00000
 BRILLOUIN|   456           0.00195       -0.04688       -0.26562        0.00000
 BRILLOUIN|   457           0.00195       -0.04688       -0.23438        0.00000
 BRILLOUIN|   458           0.00195       -0.04688       -0.20312        0.00000
 BRILLOUIN|   459           0.00195       -0.04688       -0.17188        0.00000
 BRILLOUIN|   460           0.00195       -0.04688       -0.14062        0.00000
 BRILLOUIN|   461           0.00195       -0.04688       -0.10938        0.00000
 BRILLOUIN|   462           0.00195       -0.04688       -0.07812        0.00000
 BRILLOUIN|   463           0.00195       -0.04688       -0.04688        0.00000
 BRILLOUIN|   464           0.00195       -0.04688       -0.01562        0.00000
 BRILLOUIN|   465           0.00195       -0.04688        0.01562        0.00000
 BRILLOUIN|   466           0.00195       -0.04688        0.04688        0.00000
 BRILLOUIN|   467           0.00195       -0.04688        0.07812        0.00000
 BRILLOUIN|   468           0.00195       -0.04688        0.10938        0.00000
 BRILLOUIN|   469           0.00195       -0.04688        0.14062        0.00000
 BRILLOUIN|   470           0.00195       -0.04688        0.17188        0.00000
 BRILLOUIN|   471           0.00195       -0.04688        0.20312        0.00000
 BRILLOUIN|   472           0.00195       -0.04688        0.23438        0.00000
 BRILLOUIN|   473           0.00195       -0.04688        0.26562        0.00000
 BRILLOUIN|   474           0.00195       -0.04688        0.29688        0.00000
 BRILLOUIN|   475           0.00195       -0.04688        0.32812        0.00000
 BRILLOUIN|   476           0.00195       -0.04688        0.35938        0.00000
 BRILLOUIN|   477           0.00195       -0.04688        0.39062        0.00000
 BRILLOUIN|   478           0.00195       -0.04688        0.42188        0.00000
 BRILLOUIN|   479           0.00195       -0.04688        0.45312        0.00000
 BRILLOUIN|   480           0.00195       -0.04688        0.48438        0.00000
 BRILLOUIN|   481           0.00195       -0.01562       -0.48438        0.00000
 BRILLOUIN|   482           0.00195       -0.01562       -0.45312        0.00000
 BRILLOUIN|   483           0.00195       -0.01562       -0.42188        0.00000
 BRILLOUIN|   484           0.00195       -0.01562       -0.39062        0.00000
 BRILLOUIN|   485           0.00195       -0.01562       -0.35938        0.00000
 BRILLOUIN|   486           0.00195       -0.01562       -0.32812        0.00000
 BRILLOUIN|   487           0.00195       -0.01562       -0.29688        0.00000
 BRILLOUIN|   488           0.00195       -0.01562       -0.26562        0.00000
 BRILLOUIN|   489           0.00195       -0.01562       -0.23438        0.00000
 BRILLOUIN|   490           0.00195       -0.01562       -0.20312        0.00000
 BRILLOUIN|   491           0.00195       -0.01562       -0.17188        0.00000
 BRILLOUIN|   492           0.00195       -0.01562       -0.14062        0.00000
 BRILLOUIN|   493           0.00195       -0.01562       -0.10938        0.00000
 BRILLOUIN|   494           0.00195       -0.01562       -0.07812        0.00000
 BRILLOUIN|   495           0.00195       -0.01562       -0.04688        0.00000
 BRILLOUIN|   496           0.00195       -0.01562       -0.01562        0.00000
 BRILLOUIN|   497           0.00195       -0.01562        0.01562        0.00000
 BRILLOUIN|   498           0.00195       -0.01562        0.04688        0.00000
 BRILLOUIN|   499           0.00195       -0.01562        0.07812        0.00000
 BRILLOUIN|   500           0.00195       -0.01562        0.10938        0.00000
 BRILLOUIN|   501           0.00195       -0.01562        0.14062        0.00000
 BRILLOUIN|   502           0.00195       -0.01562        0.17188        0.00000
 BRILLOUIN|   503           0.00195       -0.01562        0.20312        0.00000
 BRILLOUIN|   504           0.00195       -0.01562        0.23438        0.00000
 BRILLOUIN|   505           0.00195       -0.01562        0.26562        0.00000
 BRILLOUIN|   506           0.00195       -0.01562        0.29688        0.00000
 BRILLOUIN|   507           0.00195       -0.01562        0.32812        0.00000
 BRILLOUIN|   508           0.00195       -0.01562        0.35938        0.00000
 BRILLOUIN|   509           0.00195       -0.01562        0.39062        0.00000
 BRILLOUIN|   510           0.00195       -0.01562        0.42188        0.00000
 BRILLOUIN|   511           0.00195       -0.01562        0.45312        0.00000
 BRILLOUIN|   512           0.00195       -0.01562        0.48438        0.00000
 *******************************************************************************

 *******************************************************************************
 *******************************************************************************
 **                                                                           **
 **     #####                         ##              ##                      **
 **    ##   ##            ##          ##              ##                      **
 **   ##     ##                       ##            ######                    **
 **   ##     ##  ##   ##  ##   #####  ##  ##   ####   ##    #####    #####    **
 **   ##     ##  ##   ##  ##  ##      ## ##   ##      ##   ##   ##  ##   ##   **
 **   ##  ## ##  ##   ##  ##  ##      ####     ###    ##   ######   ######    **
 **    ##  ###   ##   ##  ##  ##      ## ##      ##   ##   ##       ##        **
 **     #######   #####   ##   #####  ##  ##  ####    ##    #####   ##        **
 **           ##                                                    ##        **
 **                                                                           **
 **                                                ... make the atoms dance   **
 **                                                                           **
 **            Copyright (C) by CP2K developers group (2000-2025)             **
 **                      J. Chem. Phys. 152, 194103 (2020)                    **
 **                                                                           **
 *******************************************************************************

 DFT| Spin restricted Kohn-Sham (RKS) calculation                            RKS
 DFT| Multiplicity                                                             1
 DFT| Number of spin states                                                    1
 DFT| Charge                                                                   0
 DFT| Self-interaction correction (SIC)                                       NO
 DFT| Cutoffs: density                                              1.000000E-10
 DFT|          gradient                                             1.000000E-10
 DFT|          tau                                                  1.000000E-10
 DFT|          cutoff_smoothing_range                               0.000000E+00
 DFT| XC density smoothing                                                  NONE
 DFT| XC derivatives                                                          PW

 FUNCTIONAL| PBE:
 FUNCTIONAL| J.P.Perdew, K.Burke, M.Ernzerhof, Phys. Rev. Letter, vol. 77, n 18,
 FUNCTIONAL|  pp. 3865-3868, (1996) {spin unpolarized}                          


 QS| Method:                                                                 GPW
 QS| Density plane wave grid type                        NON-SPHERICAL FULLSPACE
 QS| Number of grid levels:                                                    4
 QS| Density cutoff [a.u.]:                                                500.0
 QS| Multi grid cutoff [a.u.]: 1) grid level                               500.0
 QS|                           2) grid level                               166.7
 QS|                           3) grid level                                55.6
 QS|                           4) grid level                                18.5
 QS| Grid level progression factor:                                          3.0
 QS| Relative density cutoff [a.u.]:                                        50.0
 QS| Interaction thresholds: eps_pgf_orb:                                1.0E-12
 QS|                         eps_filter_matrix:                          0.0E+00
 QS|                         eps_core_charge:                            1.0E-14
 QS|                         eps_rho_gspace:                             1.0E-12
 QS|                         eps_rho_rspace:                             1.0E-12
 QS|                         eps_gvg_rspace:                             1.0E-06
 QS|                         eps_ppl:                                    1.0E-02
 QS|                         eps_ppnl:                                   1.0E-08


 ATOMIC KIND INFORMATION

  1. Atomic kind: B                                     Number of atoms:       1

     Orbital Basis Set                                 aug-SZV-MOLOPT-GTH-tier-2

       Number of orbital shell sets:                                           1
       Number of orbital shells:                                               5
       Number of primitive Cartesian functions:                                5
       Number of Cartesian basis functions:                                   14
       Number of spherical basis functions:                                   13
       Norm type:                                                              2

       Normalised Cartesian orbitals:

                        Set   Shell   Orbital            Exponent    Coefficient

                          1       1    2s                0.070000       0.000000
                                                         0.101655      -0.057697
                                                         0.329920      -0.219689
                                                         0.915484       0.050494
                                                         3.053444       0.252403

                          1       2    3s                0.070000       0.096981
                                                         0.101655      -0.000080
                                                         0.329920       0.000294
                                                         0.915484       0.000161
                                                         3.053444       0.000000

                          1       3    3px               0.070000       0.000000
                                                         0.101655      -0.024010
                                                         0.329920      -0.182602
                                                         0.915484      -0.388731
                                                         3.053444      -0.570047
                          1       3    3py               0.070000       0.000000
                                                         0.101655      -0.024010
                                                         0.329920      -0.182602
                                                         0.915484      -0.388731
                                                         3.053444      -0.570047
                          1       3    3pz               0.070000       0.000000
                                                         0.101655      -0.024010
                                                         0.329920      -0.182602
                                                         0.915484      -0.388731
                                                         3.053444      -0.570047

                          1       4    4px               0.070000       0.057413
                                                         0.101655      -0.011874
                                                         0.329920       0.011088
                                                         0.915484       0.026429
                                                         3.053444       0.000000
                          1       4    4py               0.070000       0.057413
                                                         0.101655      -0.011874
                                                         0.329920       0.011088
                                                         0.915484       0.026429
                                                         3.053444       0.000000
                          1       4    4pz               0.070000       0.057413
                                                         0.101655      -0.011874
                                                         0.329920       0.011088
                                                         0.915484       0.026429
                                                         3.053444       0.000000

                          1       5    4dx2              0.070000       0.000071
                                                         0.101655       0.000150
                                                         0.329920       0.236125
                                                         0.915484      -0.007588
                                                         3.053444       0.000000
                          1       5    4dxy              0.070000       0.000123
                                                         0.101655       0.000260
                                                         0.329920       0.408980
                                                         0.915484      -0.013142
                                                         3.053444       0.000000
                          1       5    4dxz              0.070000       0.000123
                                                         0.101655       0.000260
                                                         0.329920       0.408980
                                                         0.915484      -0.013142
                                                         3.053444       0.000000
                          1       5    4dy2              0.070000       0.000071
                                                         0.101655       0.000150
                                                         0.329920       0.236125
                                                         0.915484      -0.007588
                                                         3.053444       0.000000
                          1       5    4dyz              0.070000       0.000123
                                                         0.101655       0.000260
                                                         0.329920       0.408980
                                                         0.915484      -0.013142
                                                         3.053444       0.000000
                          1       5    4dz2              0.070000       0.000071
                                                         0.101655       0.000150
                                                         0.329920       0.236125
                                                         0.915484      -0.007588
                                                         3.053444       0.000000

     RI Auxiliary Basis Set             RI_aug-SZV-MOLOPT-GTH-tier-2_N_RI_014_s_

       Number of orbital shell sets:                                           6
       Number of orbital shells:                                               6
       Number of primitive Cartesian functions:                                6
       Number of Cartesian basis functions:                                   15
       Number of spherical basis functions:                                   14
       Norm type:                                                              2

       Normalised Cartesian orbitals:

                        Set   Shell   Orbital            Exponent    Coefficient

                          1       1    1s                0.176183       0.193813

                          2       1    4px               0.190207       0.179049
                          2       1    4py               0.190207       0.179049
                          2       1    4pz               0.190207       0.179049

                          3       1    2s                0.494536       0.420299

                          4       1    6dx2              0.503217       0.494859
                          4       1    6dxy              0.503217       0.857120
                          4       1    6dxz              0.503217       0.857120
                          4       1    6dy2              0.503217       0.494859
                          4       1    6dyz              0.503217       0.857120
                          4       1    6dz2              0.503217       0.494859

                          5       1    5px               0.738822       0.976371
                          5       1    5py               0.738822       0.976371
                          5       1    5pz               0.738822       0.976371

                          6       1    3s                3.130453       1.677318

       Atomic covalent radius [Angstrom]:                                  0.820

       Atomic van der Waals radius [Angstrom]:                             1.920

     GTH Potential information for                                    GTH-PBE-q3

       Description:                       Goedecker-Teter-Hutter pseudopotential
                                           Goedecker et al., PRB 54, 1703 (1996)
                                          Hartwigsen et al., PRB 58, 3641 (1998)
                                                      Krack, TCA 114, 145 (2005)

       Gaussian exponent of the core charge distribution:               2.848129
       Electronic configuration (s p d ...):                               2   1

       Parameters of the local part of the GTH pseudopotential:

                          rloc        C1          C2          C3          C4
                        0.418991   -5.859462    0.903756

       Parameters of the non-local part of the GTH (SOC) pseudopotential:

                   l      r(l)      h(i,j,l)
                                    k(i,j,l)
                   0    0.371320    6.297280
                   1    0.364563    0.000000
                                    0.000855

  2. Atomic kind: N                                     Number of atoms:       1

     Orbital Basis Set                                 aug-SZV-MOLOPT-GTH-tier-2

       Number of orbital shell sets:                                           1
       Number of orbital shells:                                               5
       Number of primitive Cartesian functions:                                6
       Number of Cartesian basis functions:                                   14
       Number of spherical basis functions:                                   13
       Norm type:                                                              2

       Normalised Cartesian orbitals:

                        Set   Shell   Orbital            Exponent    Coefficient

                          1       1    2s                0.070000       0.000000
                                                         0.112012      -0.019197
                                                         0.333802      -0.182244
                                                         0.888575      -0.289383
                                                         2.542637       0.139177
                                                         7.341988       0.360561

                          1       2    3s                0.070000       0.092556
                                                         0.112012      -0.004523
                                                         0.333802       0.017208
                                                         0.888575       0.059493
                                                         2.542637       0.000000
                                                         7.341988       0.000000

                          1       3    3px               0.070000       0.000000
                                                         0.112012      -0.013986
                                                         0.333802      -0.144894
                                                         0.888575      -0.501079
                                                         2.542637      -0.973969
                                                         7.341988      -1.188719
                          1       3    3py               0.070000       0.000000
                                                         0.112012      -0.013986
                                                         0.333802      -0.144894
                                                         0.888575      -0.501079
                                                         2.542637      -0.973969
                                                         7.341988      -1.188719
                          1       3    3pz               0.070000       0.000000
                                                         0.112012      -0.013986
                                                         0.333802      -0.144894
                                                         0.888575      -0.501079
                                                         2.542637      -0.973969
                                                         7.341988      -1.188719

                          1       4    4px               0.070000       0.019777
                                                         0.112012       0.010521
                                                         0.333802       0.223757
                                                         0.888575       0.038703
                                                         2.542637       0.000000
                                                         7.341988       0.000000
                          1       4    4py               0.070000       0.019777
                                                         0.112012       0.010521
                                                         0.333802       0.223757
                                                         0.888575       0.038703
                                                         2.542637       0.000000
                                                         7.341988       0.000000
                          1       4    4pz               0.070000       0.019777
                                                         0.112012       0.010521
                                                         0.333802       0.223757
                                                         0.888575       0.038703
                                                         2.542637       0.000000
                                                         7.341988       0.000000

                          1       5    4dx2              0.070000       0.012523
                                                         0.112012      -0.007680
                                                         0.333802       0.106561
                                                         0.888575       0.393255
                                                         2.542637       0.000000
                                                         7.341988       0.000000
                          1       5    4dxy              0.070000       0.021691
                                                         0.112012      -0.013303
                                                         0.333802       0.184569
                                                         0.888575       0.681137
                                                         2.542637       0.000000
                                                         7.341988       0.000000
                          1       5    4dxz              0.070000       0.021691
                                                         0.112012      -0.013303
                                                         0.333802       0.184569
                                                         0.888575       0.681137
                                                         2.542637       0.000000
                                                         7.341988       0.000000
                          1       5    4dy2              0.070000       0.012523
                                                         0.112012      -0.007680
                                                         0.333802       0.106561
                                                         0.888575       0.393255
                                                         2.542637       0.000000
                                                         7.341988       0.000000
                          1       5    4dyz              0.070000       0.021691
                                                         0.112012      -0.013303
                                                         0.333802       0.184569
                                                         0.888575       0.681137
                                                         2.542637       0.000000
                                                         7.341988       0.000000
                          1       5    4dz2              0.070000       0.012523
                                                         0.112012      -0.007680
                                                         0.333802       0.106561
                                                         0.888575       0.393255
                                                         2.542637       0.000000
                                                         7.341988       0.000000

     RI Auxiliary Basis Set             RI_aug-SZV-MOLOPT-GTH-tier-2_N_RI_033_s_

       Number of orbital shell sets:                                          13
       Number of orbital shells:                                              13
       Number of primitive Cartesian functions:                               13
       Number of Cartesian basis functions:                                   38
       Number of spherical basis functions:                                   33
       Norm type:                                                              2

       Normalised Cartesian orbitals:

                        Set   Shell   Orbital            Exponent    Coefficient

                          1       1    8px               0.128755       0.109937
                          1       1    8py               0.128755       0.109937
                          1       1    8pz               0.128755       0.109937

                          2       1    1s                0.177993       0.195305

                          3       1    2s                0.352789       0.326247

                          4       1   11dx2              0.604085       0.681289
                          4       1   11dxy              0.604085       1.180027
                          4       1   11dxz              0.604085       1.180027
                          4       1   11dy2              0.604085       0.681289
                          4       1   11dyz              0.604085       1.180027
                          4       1   11dz2              0.604085       0.681289

                          5       1    9px               0.668095       0.860970
                          5       1    9py               0.668095       0.860970
                          5       1    9pz               0.668095       0.860970

                          6       1    3s                0.722621       0.558590

                          7       1   13fx3              1.003298       1.483105
                          7       1   13fx2y             1.003298       3.316324
                          7       1   13fx2z             1.003298       3.316324
                          7       1   13fxy2             1.003298       3.316324
                          7       1   13fxyz             1.003298       5.744042
                          7       1   13fxz2             1.003298       3.316324
                          7       1   13fy3              1.003298       1.483105
                          7       1   13fy2z             1.003298       3.316324
                          7       1   13fyz2             1.003298       3.316324
                          7       1   13fz3              1.003298       1.483105

                          8       1    4s                1.475569       0.954179

                          9       1   10px               1.864193       3.104944
                          9       1   10py               1.864193       3.104944
                          9       1   10pz               1.864193       3.104944

                         10       1    5s                2.970298       1.612539

                         11       1   12dx2              3.000284      11.257544
                         11       1   12dxy              3.000284      19.498638
                         11       1   12dxz              3.000284      19.498638
                         11       1   12dy2              3.000284      11.257544
                         11       1   12dyz              3.000284      19.498638
                         11       1   12dz2              3.000284      11.257544

                         12       1    6s                6.032716       2.743435

                         13       1    7s               12.241787       4.664378

       Atomic covalent radius [Angstrom]:                                  0.750

       Atomic van der Waals radius [Angstrom]:                             1.550

     GTH Potential information for                                    GTH-PBE-q5

       Description:                       Goedecker-Teter-Hutter pseudopotential
                                           Goedecker et al., PRB 54, 1703 (1996)
                                          Hartwigsen et al., PRB 58, 3641 (1998)
                                                      Krack, TCA 114, 145 (2005)

       Gaussian exponent of the core charge distribution:               6.208322
       Electronic configuration (s p d ...):                               2   3

       Parameters of the local part of the GTH pseudopotential:

                          rloc        C1          C2          C3          C4
                        0.283791  -12.415226    1.868096

       Parameters of the non-local part of the GTH (SOC) pseudopotential:

                   l      r(l)      h(i,j,l)
                                    k(i,j,l)
                   0    0.255405   13.630263
                   1    0.245495    0.000000
                                    0.004148


 MOLECULE KIND INFORMATION


 All atoms are their own molecule, skipping detailed information


 TOTAL NUMBERS AND MAXIMUM NUMBERS

  Total number of            - Atomic kinds:                                   2
                             - Atoms:                                          2
                             - Shell sets:                                     2
                             - Shells:                                        10
                             - Primitive Cartesian functions:                 11
                             - Cartesian basis functions:                     28
                             - Spherical basis functions:                     26

  Maximum angular momentum of- Orbital basis functions:                        2
                             - Local part of the GTH pseudopotential:          2
                             - Non-local part of the GTH pseudopotential:      1


 MODULE QUICKSTEP: ATOMIC COORDINATES IN ANGSTROM

   Atom Kind Element         X             Y             Z       Z(eff)     Mass
      1    1 B     5      0.000000      1.449303      7.500000   3.0000  10.8110
      2    2 N     7      1.255134      0.724652      7.500000   5.0000  14.0067



 SCF PARAMETERS         Density guess:                                    ATOMIC
                        --------------------------------------------------------
                        max_scf:                                             500
                        max_scf_history:                                       0
                        max_diis:                                              4
                        --------------------------------------------------------
                        eps_scf:                                        1.00E-09
                        eps_scf_history:                                0.00E+00
                        eps_diis:                                       1.00E-01
                        eps_eigval:                                     1.00E-05
                        --------------------------------------------------------
                        level_shift [a.u.]:                             0.000000
                        added MOs                                        22    0
                        --------------------------------------------------------
                        Mixing method:                            BROYDEN_MIXING
                                                charge density mixing in g-space
                        --------------------------------------------------------
                        No outer SCF

 PW_GRID| Information for grid number                                          1
 PW_GRID| Grid distributed over                                   128 processors
 PW_GRID| Real space group dimensions                                     8   16
 PW_GRID| the grid is blocked:                                               YES
 PW_GRID| Cutoff [a.u.]                                                    500.0
 PW_GRID| spherical cutoff:                                                   NO
 PW_GRID|   Bounds   1            -24      23                Points:          48
 PW_GRID|   Bounds   2            -24      23                Points:          48
 PW_GRID|   Bounds   3           -144     143                Points:         288
 PW_GRID| Volume element (a.u.^3)  0.8323E-03     Volume (a.u.^3)       552.2884
 PW_GRID| Grid span                                                    FULLSPACE
 PW_GRID|   Distribution                         Average         Max         Min
 PW_GRID|   G-Vectors                             5184.0        5184        5184
 PW_GRID|   G-Rays                                 108.0         108         108
 PW_GRID|   Real Space Points                     5184.0        5184        5184

 PW_GRID| Information for grid number                                          2
 PW_GRID| Number of the reference grid                                         1
 PW_GRID| Grid distributed over                                   128 processors
 PW_GRID| Real space group dimensions                                     8   16
 PW_GRID| the grid is blocked:                                                NO
 PW_GRID| Cutoff [a.u.]                                                    166.7
 PW_GRID| spherical cutoff:                                                   NO
 PW_GRID|   Bounds   1            -13      13                Points:          27
 PW_GRID|   Bounds   2            -13      13                Points:          27
 PW_GRID|   Bounds   3            -90      89                Points:         180
 PW_GRID| Volume element (a.u.^3)  0.4209E-02     Volume (a.u.^3)       552.2884
 PW_GRID| Grid span                                                    FULLSPACE
 PW_GRID|   Distribution                         Average         Max         Min
 PW_GRID|   G-Vectors                             1025.2        2916           0
 PW_GRID|   G-Rays                                  38.0         108           0
 PW_GRID|   Real Space Points                     1025.2        1440         540

 PW_GRID| Information for grid number                                          3
 PW_GRID| Number of the reference grid                                         1
 PW_GRID| Grid distributed over                                   128 processors
 PW_GRID| Real space group dimensions                                     8   16
 PW_GRID| the grid is blocked:                                                NO
 PW_GRID| Cutoff [a.u.]                                                     55.6
 PW_GRID| spherical cutoff:                                                   NO
 PW_GRID|   Bounds   1             -7       7                Points:          15
 PW_GRID|   Bounds   2             -7       7                Points:          15
 PW_GRID|   Bounds   3            -48      47                Points:          96
 PW_GRID| Volume element (a.u.^3)  0.2557E-01     Volume (a.u.^3)       552.2884
 PW_GRID| Grid span                                                    FULLSPACE
 PW_GRID|   Distribution                         Average         Max         Min
 PW_GRID|   G-Vectors                              168.8        1620           0
 PW_GRID|   G-Rays                                  11.2         108           0
 PW_GRID|   Real Space Points                      168.8         192           0

 PW_GRID| Information for grid number                                          4
 PW_GRID| Number of the reference grid                                         1
 PW_GRID| Grid distributed over                                   128 processors
 PW_GRID| Real space group dimensions                                     8   16
 PW_GRID| the grid is blocked:                                                NO
 PW_GRID| Cutoff [a.u.]                                                     18.5
 PW_GRID| spherical cutoff:                                                   NO
 PW_GRID|   Bounds   1             -4       4                Points:           9
 PW_GRID|   Bounds   2             -4       4                Points:           9
 PW_GRID|   Bounds   3            -30      29                Points:          60
 PW_GRID| Volume element (a.u.^3)  0.1136         Volume (a.u.^3)       552.2884
 PW_GRID| Grid span                                                    FULLSPACE
 PW_GRID|   Distribution                         Average         Max         Min
 PW_GRID|   G-Vectors                               38.0         810           0
 PW_GRID|   G-Rays                                   4.2          90           0
 PW_GRID|   Real Space Points                       38.0         120           0

 POISSON| Solver                                                        PERIODIC
 POISSON| Periodicity                                                        XYZ

 *** WARNING in pw_env_methods.F:746 :: The selected periodicities in the ***
 *** sections &CELL and &POISSON do not match                             ***


 RS_GRID| Information for grid number                                          1
 RS_GRID|   Bounds   1            -24      23                Points:          48
 RS_GRID|   Bounds   2            -24      23                Points:          48
 RS_GRID|   Bounds   3           -144     143                Points:         288
 RS_GRID| Real space distribution over                                128 groups
 RS_GRID| Real space distribution along direction                              3
 RS_GRID| Border size                                                         54
 RS_GRID|   Distribution                         Average         Max         Min
 RS_GRID|   Planes                                 110.2         111         110

 RS_GRID| Information for grid number                                          2
 RS_GRID|   Bounds   1            -13      13                Points:          27
 RS_GRID|   Bounds   2            -13      13                Points:          27
 RS_GRID|   Bounds   3            -90      89                Points:         180
 RS_GRID| Real space fully replicated
 RS_GRID| Group size                                                           1

 RS_GRID| Information for grid number                                          3
 RS_GRID|   Bounds   1             -7       7                Points:          15
 RS_GRID|   Bounds   2             -7       7                Points:          15
 RS_GRID|   Bounds   3            -48      47                Points:          96
 RS_GRID| Real space fully replicated
 RS_GRID| Group size                                                           1

 RS_GRID| Information for grid number                                          4
 RS_GRID|   Bounds   1             -4       4                Points:           9
 RS_GRID|   Bounds   2             -4       4                Points:           9
 RS_GRID|   Bounds   3            -30      29                Points:          60
 RS_GRID| Real space fully replicated
 RS_GRID| Group size                                                           1

 Extrapolation method: initial_guess

 Atomic guess: The first density matrix is obtained in terms of atomic orbitals
               and electronic configurations assigned to each atomic kind

 Guess for atomic kind: B

 Electronic structure
    Total number of core electrons                                          2.00
    Total number of valence electrons                                       3.00
    Total number of electrons                                               5.00
    Multiplicity                                                   not specified
    S   [  2.00] 2.00
    P      1.00


 *******************************************************************************
                  Iteration          Convergence                     Energy [au]
 *******************************************************************************
                          1        0.318287E-01                  -2.526530290476
                          2        0.130111E-01                  -2.527409258314
                          3        0.362461E-03                  -2.527664151253
                          4        0.212775E-07                  -2.527664329937

 Energy components [Hartree]           Total Energy ::           -2.527664329937
                                        Band Energy ::           -0.774157874948
                                     Kinetic Energy ::            1.432105792828
                                   Potential Energy ::           -3.959770122764
                                      Virial (-V/T) ::            2.764998328054
                                        Core Energy ::           -3.739058608706
                                          XC Energy ::           -0.778578427619
                                     Coulomb Energy ::            1.989972706388
                       Total Pseudopotential Energy ::           -5.202216582334
                       Local Pseudopotential Energy ::           -5.554780274858
                    Nonlocal Pseudopotential Energy ::            0.352563692524
                                        Confinement ::            0.310521808001

 Orbital energies  State     L     Occupation   Energy[a.u.]          Energy[eV]

                       1     0          2.000      -0.330590           -8.995816

                       1     1          1.000      -0.112978           -3.074276


 Total Electron Density at R=0:                                         0.000151

 Guess for atomic kind: N

 Electronic structure
    Total number of core electrons                                          2.00
    Total number of valence electrons                                       5.00
    Total number of electrons                                               7.00
    Multiplicity                                                   not specified
    S   [  2.00] 2.00
    P      3.00


 *******************************************************************************
                  Iteration          Convergence                     Energy [au]
 *******************************************************************************
                          1        0.279825                      -9.519702036083
                          2        0.203084                      -9.530037546193
                          3        0.554394E-03                  -9.542302744773
                          4        0.528449E-04                  -9.542302841836
                          5        0.297177E-04                  -9.542302842361
                          6        0.208869E-04                  -9.542302842484
                          7        0.550195E-07                  -9.542302842603

 Energy components [Hartree]           Total Energy ::           -9.542302842603
                                        Band Energy ::           -2.003604362155
                                     Kinetic Energy ::            6.761024631072
                                   Potential Energy ::          -16.303327473676
                                      Virial (-V/T) ::            2.411369335758
                                        Core Energy ::          -15.577117993880
                                          XC Energy ::           -2.176535633023
                                     Coulomb Energy ::            8.211350784299
                       Total Pseudopotential Energy ::          -22.374806510451
                       Local Pseudopotential Energy ::          -23.291549762728
                    Nonlocal Pseudopotential Energy ::            0.916743252277
                                        Confinement ::            0.366638854993

 Orbital energies  State     L     Occupation   Energy[a.u.]          Energy[eV]

                       1     0          2.000      -0.653124          -17.772414

                       1     1          3.000      -0.232452           -6.325340


 Total Electron Density at R=0:                                         0.000012
 Re-scaling the density matrix to get the right number of electrons
                  # Electrons              Trace(P)               Scaling factor
                            8                 8.000                        1.000

 Number of electrons:                                                          8
 Number of occupied orbitals:                                                  4
 Number of molecular orbitals:                                                26

 Number of orbital functions:                                                 26
 Number of independent orbital functions:                                     26


 SCF WAVEFUNCTION OPTIMIZATION

  Step     Update method      Time    Convergence         Total energy    Change
  ------------------------------------------------------------------------------
     1 NoMix/Diag. 0.10E+00    2.6     1.28173486       -12.8860237592 -1.29E+01
     2 Broy./Diag. 0.10E+00    2.8     0.06970426       -11.1675412356  1.72E+00
     3 Broy./Diag. 0.10E+00    2.7     0.39581580       -11.8610973407 -6.94E-01
     4 Broy./Diag. 0.10E+00    2.8     0.01882051       -12.5831449842 -7.22E-01
     5 Broy./Diag. 0.10E+00    2.8     0.12955538       -12.6776695177 -9.45E-02
     6 Broy./Diag. 0.10E+00    3.0     0.00566351       -12.7520476074 -7.44E-02
     7 Broy./Diag. 0.10E+00    3.0     0.04299276       -12.7971998100 -4.52E-02
     8 Broy./Diag. 0.10E+00    2.7     0.00324539       -12.8388305744 -4.16E-02
     9 Broy./Diag. 0.10E+00    2.7     0.02472780       -12.8447524360 -5.92E-03
    10 Broy./Diag. 0.10E+00    2.6     0.00082354       -12.8617407869 -1.70E-02
    11 Broy./Diag. 0.10E+00    2.6     0.01003615       -12.8566321218  5.11E-03
    12 Broy./Diag. 0.10E+00    2.6     0.00042582       -12.8601475201 -3.52E-03
    13 Broy./Diag. 0.10E+00    2.6     0.00291615       -12.8643250218 -4.18E-03
    14 Broy./Diag. 0.10E+00    2.6     0.00101882       -12.8665930870 -2.27E-03
    15 Broy./Diag. 0.10E+00    2.6     0.00067164       -12.8686582475 -2.07E-03
    16 Broy./Diag. 0.10E+00    2.8     0.00077660       -12.8680534841  6.05E-04
    17 Broy./Diag. 0.10E+00    3.0     0.00038974       -12.8671382673  9.15E-04
    18 Broy./Diag. 0.10E+00    2.9     0.00024691       -12.8673969841 -2.59E-04
    19 Broy./Diag. 0.10E+00    2.7     0.00047246       -12.8668154341  5.82E-04
    20 Broy./Diag. 0.10E+00    2.7     0.00046970       -12.8667169576  9.85E-05
    21 Broy./Diag. 0.10E+00    2.6     0.00008811       -12.8667565044 -3.95E-05
    22 Broy./Diag. 0.10E+00    2.5     0.00030013       -12.8668798258 -1.23E-04
    23 Broy./Diag. 0.10E+00    2.6     0.00002589       -12.8670705868 -1.91E-04
    24 Broy./Diag. 0.10E+00    2.6     0.00015307       -12.8671616062 -9.10E-05
    25 Broy./Diag. 0.10E+00    2.5     0.00003534       -12.8670177133  1.44E-04
    26 Broy./Diag. 0.10E+00    2.5     0.00008659       -12.8669125769  1.05E-04
    27 Broy./Diag. 0.10E+00    2.6     0.00002441       -12.8669974044 -8.48E-05
    28 Broy./Diag. 0.10E+00    3.0     0.00003909       -12.8670196372 -2.22E-05
    29 Broy./Diag. 0.10E+00    2.8     0.00009653       -12.8670965728 -7.69E-05
    30 Broy./Diag. 0.10E+00    2.7     0.00000707       -12.8671143545 -1.78E-05
    31 Broy./Diag. 0.10E+00    2.7     0.00001057       -12.8670853092  2.90E-05
    32 Broy./Diag. 0.10E+00    2.5     0.00001639       -12.8671256024 -4.03E-05
    33 Broy./Diag. 0.10E+00    2.5     0.00002982       -12.8671365662 -1.10E-05
    34 Broy./Diag. 0.10E+00    2.5     0.00002053       -12.8670786392  5.79E-05
    35 Broy./Diag. 0.10E+00    2.6     0.00004125       -12.8670429292  3.57E-05
    36 Broy./Diag. 0.10E+00    2.6     0.00000091       -12.8670156086  2.73E-05
    37 Broy./Diag. 0.10E+00    2.6     0.00000325       -12.8670206893 -5.08E-06
    38 Broy./Diag. 0.10E+00    2.5     0.00000108       -12.8670200811  6.08E-07
    39 Broy./Diag. 0.10E+00    3.2     0.00000149       -12.8670186513  1.43E-06
    40 Broy./Diag. 0.10E+00    2.9     0.00000050       -12.8670188842 -2.33E-07
    41 Broy./Diag. 0.10E+00    2.5     0.00000043       -12.8670198053 -9.21E-07
    42 Broy./Diag. 0.10E+00    2.6     0.00000047       -12.8670194701  3.35E-07
    43 Broy./Diag. 0.10E+00    2.5     0.00000070       -12.8670190511  4.19E-07
    44 Broy./Diag. 0.10E+00    2.6     0.00000036       -12.8670197241 -6.73E-07
    45 Broy./Diag. 0.10E+00    2.6     0.00000020       -12.8670199051 -1.81E-07
    46 Broy./Diag. 0.10E+00    2.6     0.00000018       -12.8670195288  3.76E-07
    47 Broy./Diag. 0.10E+00    2.6     0.00000007       -12.8670194450  8.38E-08
    48 Broy./Diag. 0.10E+00    2.6     0.00000006       -12.8670195503 -1.05E-07
    49 Broy./Diag. 0.10E+00    2.5     0.00000010       -12.8670195086  4.17E-08
    50 Broy./Diag. 0.10E+00    3.0     0.00000007       -12.8670193974  1.11E-07
    51 Broy./Diag. 0.10E+00    2.7     0.00000004       -12.8670194640 -6.66E-08
    52 Broy./Diag. 0.10E+00    2.9     0.00000020       -12.8670195500 -8.60E-08
    53 Broy./Diag. 0.10E+00    2.6     0.00000007       -12.8670195175  3.25E-08
    54 Broy./Diag. 0.10E+00    2.7     0.00000007       -12.8670194808  3.67E-08
    55 Broy./Diag. 0.10E+00    2.5     0.00000009       -12.8670195280 -4.72E-08
    56 Broy./Diag. 0.10E+00    2.7     0.00000005       -12.8670194920  3.60E-08
    57 Broy./Diag. 0.10E+00    2.5     0.00000008       -12.8670193899  1.02E-07
    58 Broy./Diag. 0.10E+00    2.7     0.00000004       -12.8670193786  1.13E-08
    59 Broy./Diag. 0.10E+00    2.6     0.00000005       -12.8670194489 -7.03E-08
    60 Broy./Diag. 0.10E+00    2.6     0.00000002       -12.8670194220  2.69E-08
    61 Broy./Diag. 0.10E+00    3.0     0.00000002       -12.8670194220  3.97E-11
    62 Broy./Diag. 0.10E+00    2.9     0.00000003       -12.8670194760 -5.41E-08
    63 Broy./Diag. 0.10E+00    2.7     0.00000005       -12.8670194663  9.76E-09
    64 Broy./Diag. 0.10E+00    2.7     0.00000002       -12.8670194360  3.03E-08
    65 Broy./Diag. 0.10E+00    2.6     0.00000002       -12.8670194474 -1.14E-08
    66 Broy./Diag. 0.10E+00    2.5     0.00000003       -12.8670194476 -1.81E-10
    67 Broy./Diag. 0.10E+00    2.6     0.00000003       -12.8670193852  6.24E-08
    68 Broy./Diag. 0.10E+00    2.6     0.00000003       -12.8670193970 -1.17E-08
    69 Broy./Diag. 0.10E+00    2.6     0.00000003       -12.8670194562 -5.92E-08
    70 Broy./Diag. 0.10E+00    2.5     8.3060E-09       -12.8670194688 -1.26E-08
    71 Broy./Diag. 0.10E+00    2.5     9.7593E-09       -12.8670194561  1.27E-08
    72 Broy./Diag. 0.10E+00    2.7     0.00000002       -12.8670194781 -2.20E-08
    73 Broy./Diag. 0.10E+00    3.0     0.00000002       -12.8670194956 -1.76E-08
    74 Broy./Diag. 0.10E+00    2.9     0.00000001       -12.8670194810  1.46E-08
    75 Broy./Diag. 0.10E+00    2.7     0.00000001       -12.8670194775  3.59E-09
    76 Broy./Diag. 0.10E+00    2.6     7.8373E-09       -12.8670194933 -1.59E-08
    77 Broy./Diag. 0.10E+00    2.7     0.00000002       -12.8670194836  9.77E-09
    78 Broy./Diag. 0.10E+00    2.6     0.00000001       -12.8670194664  1.71E-08
    79 Broy./Diag. 0.10E+00    2.7     0.00000002       -12.8670194966 -3.02E-08
    80 Broy./Diag. 0.10E+00    2.6     9.1376E-09       -12.8670195262 -2.95E-08
    81 Broy./Diag. 0.10E+00    2.6     4.2497E-09       -12.8670195151  1.11E-08
    82 Broy./Diag. 0.10E+00    2.5     0.00000002       -12.8670195210 -5.86E-09
    83 Broy./Diag. 0.10E+00    2.7     0.00000001       -12.8670195473 -2.63E-08
    84 Broy./Diag. 0.10E+00    2.9     7.1285E-09       -12.8670195377  9.58E-09
    85 Broy./Diag. 0.10E+00    2.8     7.1060E-09       -12.8670195254  1.23E-08
    86 Broy./Diag. 0.10E+00    2.6     3.1812E-09       -12.8670195377 -1.23E-08
    87 Broy./Diag. 0.10E+00    2.6     0.00000002       -12.8670195426 -4.89E-09
    88 Broy./Diag. 0.10E+00    2.5     8.8530E-09       -12.8670195246  1.80E-08
    89 Broy./Diag. 0.10E+00    2.6     9.0505E-09       -12.8670195367 -1.21E-08
    90 Broy./Diag. 0.10E+00    2.5     0.00000001       -12.8670195660 -2.93E-08
    91 Broy./Diag. 0.10E+00    2.6     6.4851E-09       -12.8670195654  6.01E-10
    92 Broy./Diag. 0.10E+00    2.6     5.6541E-09       -12.8670195536  1.19E-08
    93 Broy./Diag. 0.10E+00    2.6     5.3795E-09       -12.8670195623 -8.70E-09
    94 Broy./Diag. 0.10E+00    2.6     2.2714E-09       -12.8670195642 -1.92E-09
    95 Broy./Diag. 0.10E+00    3.1     4.9852E-09       -12.8670195536  1.06E-08
    96 Broy./Diag. 0.10E+00    2.9     3.9224E-09       -12.8670195535  1.12E-10
    97 Broy./Diag. 0.10E+00    2.7     3.6947E-09       -12.8670195587 -5.17E-09
    98 Broy./Diag. 0.10E+00    2.6     4.9766E-09       -12.8670195546  4.11E-09
    99 Broy./Diag. 0.10E+00    2.6     2.4364E-09       -12.8670195513  3.28E-09
   100 Broy./Diag. 0.10E+00    2.6     3.3087E-09       -12.8670195565 -5.20E-09
   101 Broy./Diag. 0.10E+00    2.6     3.1719E-09       -12.8670195585 -2.00E-09
   102 Broy./Diag. 0.10E+00    2.5     4.1554E-09       -12.8670195496  8.91E-09
   103 Broy./Diag. 0.10E+00    2.7     2.7837E-09       -12.8670195467  2.84E-09
   104 Broy./Diag. 0.10E+00    2.6     1.5688E-09       -12.8670195484 -1.70E-09
   105 Broy./Diag. 0.10E+00    2.6     3.4104E-09       -12.8670195435  4.92E-09
   106 Broy./Diag. 0.10E+00    3.1     3.2203E-09       -12.8670195401  3.42E-09
   107 Broy./Diag. 0.10E+00    3.1     1.9321E-09       -12.8670195427 -2.65E-09
   108 Broy./Diag. 0.10E+00    2.6     2.5762E-09       -12.8670195435 -7.31E-10
   109 Broy./Diag. 0.10E+00    2.7     1.8583E-09       -12.8670195393  4.20E-09
   110 Broy./Diag. 0.10E+00    2.6     1.4532E-09       -12.8670195389  3.43E-10
   111 Broy./Diag. 0.10E+00    2.6     2.4998E-09       -12.8670195413 -2.36E-09
   112 Broy./Diag. 0.10E+00    2.6     1.6230E-09       -12.8670195384  2.91E-09
   113 Broy./Diag. 0.10E+00    2.6     1.7739E-09       -12.8670195344  3.96E-09
   114 Broy./Diag. 0.10E+00    2.6     1.2574E-09       -12.8670195351 -7.06E-10
   115 Broy./Diag. 0.10E+00    2.6     1.0968E-09       -12.8670195346  5.35E-10
   116 Broy./Diag. 0.10E+00    2.6     1.8778E-09       -12.8670195320  2.59E-09
   117 Broy./Diag. 0.10E+00    3.0     9.9554E-10       -12.8670195335 -1.51E-09

  *** SCF run converged in   117 steps ***


  Electronic density on regular grids:         -8.0000000000        0.0000000000
  Core density on regular grids:                8.0000000000       -0.0000000000
  Total charge density on r-space grids:       -0.0000000000
  Total charge density g-space grids:          -0.0000000000

  Overlap energy of the core charge distribution:               0.00000102720762
  Self energy of the core charge distribution:                -30.91005782344042
  Core Hamiltonian energy:                                      9.49776707771000
  Hartree energy:                                              12.22279987349819
  Exchange-correlation energy:                                 -3.67752968848223

  Total energy:                                               -12.86701953350685

 !-----------------------------------------------------------------------------!
                     Mulliken Population Analysis

 #  Atom  Element  Kind  Atomic population                           Net charge
       1     B        1          3.101032                             -0.101032
       2     N        2          4.898968                              0.101032
 # Total charge                              8.000000                 -0.000000

 !-----------------------------------------------------------------------------!

 !-----------------------------------------------------------------------------!
                           Hirshfeld Charges

  #Atom  Element  Kind  Ref Charge     Population                    Net charge
      1       B      1       3.000          2.610                         0.390
      2       N      2       5.000          5.389                        -0.389

  Total Charge                                                            0.001
 !-----------------------------------------------------------------------------!
  
 -------------------------------------------------------------------------------
 -                                                                             -
 -                          BANDSTRUCTURE CALCULATION                          -
 -                                                                             -
 -------------------------------------------------------------------------------
  
 Number of occupied molecular orbitals (MOs) = Number of occupied bands        4
 Number of unoccupied (= virtual) MOs = Number of unoccupied bands            22
 Number of Gaussian basis functions for MOs                                   26
 Number of cells considered in the DFT calculation                           315
 Number of cells for G, χ, W, Σ                                              961
 Number of special k-points for the bandstructure                              4
 Number of k-points for the bandstructure                                   1172
  
 -------------------------------------------------------------------------------
 -                                                                             -
 -                                GW CALCULATION                               -
 -                                                                             -
 -------------------------------------------------------------------------------
  
 Input: Number of time/freq. points                                           30
 Input: ω_max for fitting Σ(iω) (eV)                                        10.0
 Input: Filter threshold for sparse tensor operations                    1.0E-11
 Input: Apply Hedin shift                                                      F
  
 Number of auxiliary Gaussian basis functions for χ, ε, W                     47
 Cutoff radius for the truncated Coulomb operator in Σ^x:                 33.7 Å
 Cutoff radius for the truncated Coulomb operator in RI metric:            7.0 Å
 Regularization parameter of RI                                          1.0E-02
 Regularization parameter of minimax grids                               1.0E-06
 Lattice sum size for V(k):                                                    3
  
 K-point mesh 1 for χ, ε, W                                          128 128   1
 K-point mesh 2 for χ, ε, W (for k-point extrapolation of W)         256 256   1
 Approximate the k-point extrapolation                                         F
 Radius of atomic orbitals                                                11.8 Å
 Radius of RI functions                                                    8.7 Å
 Number of cells for 3c integrals                                            395
 Number of cell pairs for 3c integrals                                     39409
 
 Input: Available memory per MPI process                                 32.0 GB
 Used memory per MPI process before GW run                                0.4 GB
 Memory of three-center integrals                                        10.0 GB
 Group size for tensor operations                                              1
 Number of cells ΔR                                                         1539
 Min. abs. eigenvalue of RI metric matrix M(k)                           2.4E-04
 Max. abs. eigenvalue of RI metric matrix M(k)                           2.2E+03
 Max. condition number of M(k)                                           6.2E+06
 
 SCF direct band gap (eV)                                                   4.67
 Max. SCF eigval diff. (eV)                                               262.87
 E-Range for minimax grid                                                  56.28
 Number of Padé parameters for analytic continuation:                         16
 
 Computed χ^R(iτ) for time point            1 / 30,      Execution time  298.5 s
 Computed χ^R(iτ) for time point            2 / 30,      Execution time  613.4 s
 Computed χ^R(iτ) for time point            3 / 30,      Execution time  665.9 s
 Computed χ^R(iτ) for time point            4 / 30,      Execution time  664.2 s
 Computed χ^R(iτ) for time point            5 / 30,      Execution time  666.3 s
 Computed χ^R(iτ) for time point            6 / 30,      Execution time  667.8 s
 Computed χ^R(iτ) for time point            7 / 30,      Execution time  666.8 s
 Computed χ^R(iτ) for time point            8 / 30,      Execution time  659.2 s
 Computed χ^R(iτ) for time point            9 / 30,      Execution time  657.3 s
 Computed χ^R(iτ) for time point           10 / 30,      Execution time  654.1 s
 Computed χ^R(iτ) for time point           11 / 30,      Execution time  632.0 s
 Computed χ^R(iτ) for time point           12 / 30,      Execution time  618.6 s
 Computed χ^R(iτ) for time point           13 / 30,      Execution time  607.5 s
 Computed χ^R(iτ) for time point           14 / 30,      Execution time  603.1 s
 Computed χ^R(iτ) for time point           15 / 30,      Execution time  593.2 s
 Computed χ^R(iτ) for time point           16 / 30,      Execution time  581.8 s
 Computed χ^R(iτ) for time point           17 / 30,      Execution time  562.0 s
 Computed χ^R(iτ) for time point           18 / 30,      Execution time  526.5 s
 Computed χ^R(iτ) for time point           19 / 30,      Execution time  495.0 s
 Computed χ^R(iτ) for time point           20 / 30,      Execution time  425.8 s
 Computed χ^R(iτ) for time point           21 / 30,      Execution time  325.7 s
 Computed χ^R(iτ) for time point           22 / 30,      Execution time  210.9 s
 Computed χ^R(iτ) for time point           23 / 30,      Execution time   13.7 s
 Computed χ^R(iτ) for time point           24 / 30,      Execution time    5.5 s
 Computed χ^R(iτ) for time point           25 / 30,      Execution time    6.0 s
 Computed χ^R(iτ) for time point           26 / 30,      Execution time    5.7 s
 Computed χ^R(iτ) for time point           27 / 30,      Execution time    5.6 s
 Computed χ^R(iτ) for time point           28 / 30,      Execution time    5.6 s
 Computed χ^R(iτ) for time point           29 / 30,      Execution time    6.0 s
 Computed χ^R(iτ) for time point           30 / 30,      Execution time    5.9 s
 Computed V_PQ(k),                                       Execution time  438.6 s
 
 Computed W_PQ(k,iω) for all k and τ,                    Execution time  125.3 s
 
 Computed Σ^x,                                           Execution time 1212.2 s
 
 Computed Σ^c(iτ) for time point            1 / 30,      Execution time  636.6 s
 Computed Σ^c(iτ) for time point            2 / 30,      Execution time  330.4 s
 Computed Σ^c(iτ) for time point            3 / 30,      Execution time  322.3 s
 Computed Σ^c(iτ) for time point            4 / 30,      Execution time  318.0 s
 Computed Σ^c(iτ) for time point            5 / 30,      Execution time  314.3 s
 Computed Σ^c(iτ) for time point            6 / 30,      Execution time  310.9 s
 Computed Σ^c(iτ) for time point            7 / 30,      Execution time  307.3 s
 Computed Σ^c(iτ) for time point            8 / 30,      Execution time  302.2 s
 Computed Σ^c(iτ) for time point            9 / 30,      Execution time  296.1 s
 Computed Σ^c(iτ) for time point           10 / 30,      Execution time  289.3 s
 Computed Σ^c(iτ) for time point           11 / 30,      Execution time  280.1 s
 Computed Σ^c(iτ) for time point           12 / 30,      Execution time  270.0 s
 Computed Σ^c(iτ) for time point           13 / 30,      Execution time  261.5 s
 Computed Σ^c(iτ) for time point           14 / 30,      Execution time  254.5 s
 Computed Σ^c(iτ) for time point           15 / 30,      Execution time  245.5 s
 Computed Σ^c(iτ) for time point           16 / 30,      Execution time  235.9 s
 Computed Σ^c(iτ) for time point           17 / 30,      Execution time  220.4 s
 Computed Σ^c(iτ) for time point           18 / 30,      Execution time  204.7 s
 Computed Σ^c(iτ) for time point           19 / 30,      Execution time  185.6 s
 Computed Σ^c(iτ) for time point           20 / 30,      Execution time  135.5 s
 Computed Σ^c(iτ) for time point           21 / 30,      Execution time  102.3 s
 Computed Σ^c(iτ) for time point           22 / 30,      Execution time    9.6 s
 Computed Σ^c(iτ) for time point           23 / 30,      Execution time    7.1 s
 Computed Σ^c(iτ) for time point           24 / 30,      Execution time    5.6 s
 Computed Σ^c(iτ) for time point           25 / 30,      Execution time    5.4 s
 Computed Σ^c(iτ) for time point           26 / 30,      Execution time    5.4 s
 Computed Σ^c(iτ) for time point           27 / 30,      Execution time    5.7 s
 Computed Σ^c(iτ) for time point           28 / 30,      Execution time    6.1 s
 Computed Σ^c(iτ) for time point           29 / 30,      Execution time    5.5 s
 Computed Σ^c(iτ) for time point           30 / 30,      Execution time    5.4 s

 
 SCF valence band maximum (eV):                                           -3.666
 SCF conduction band minimum (eV):                                         1.004
 SCF indirect band gap (eV):                                               4.671
 SCF direct band gap (eV):                                                 4.671
 
 G0W0 valence band maximum (eV):                                        1306.629
 G0W0 conduction band minimum (eV):                                -24141054.821
 G0W0 indirect band gap (eV):                                      -24142361.449
 G0W0 direct band gap (eV):                                        -24141048.554
 
 Hartree-Fock with SCF orbitals valence band maximum (eV):              1306.814
 Hartree-Fock with SCF orbitals conduction band minimum (eV)       -24141054.633
 Hartree-Fock with SCF orbitals indirect band gap (eV):            -24142361.447
 Hartree-Fock with SCF orbitals direct band gap (eV):              -24141045.671

 ENERGY| Total FORCE_EVAL ( QS ) energy [hartree]            -12.867019535222830

 -------------------------------------------------------------------------------
 -                                                                             -
 -                                DBCSR STATISTICS                             -
 -                                                                             -
 -------------------------------------------------------------------------------
 COUNTER                                    TOTAL       BLAS       SMM       ACC
 flops inhomo. stacks                           0       0.0%      0.0%      0.0%
 flops total                         0.000000E+00       0.0%      0.0%      0.0%
 flops max/rank                      0.000000E+00       0.0%      0.0%      0.0%
 matmuls inhomo. stacks                         0       0.0%      0.0%      0.0%
 matmuls total                                  0       0.0%      0.0%      0.0%
 number of processed stacks                     0       0.0%      0.0%      0.0%
 average stack size                                     0.0       0.0       0.0
 marketing flops                     0.000000E+00
 -------------------------------------------------------------------------------
 -                                                                             -
 -                      DBCSR MESSAGE PASSING PERFORMANCE                      -
 -                                                                             -
 -------------------------------------------------------------------------------
 ROUTINE             CALLS      AVE VOLUME [Bytes]
 MP_Bcast                1                     12.
 MP_Allreduce           19                     21.
 MP_Alltoall       7528145                  45860.
 -------------------------------------------------------------------------------

 -------------------------------------------------------------------------------
 -                                                                             -
 -                                DBM STATISTICS                               -
 -                                                                             -
 -------------------------------------------------------------------------------
    M  x    N  x    K                                          COUNT     PERCENT
    ?  x    ?  x    ?                                     9347707271      49.80%
   ??  x   ??  x  ???                                     2591908631      13.81%
  ???  x   ??  x   ??                                     6830149853      36.39%
 -------------------------------------------------------------------------------
 Memory consumption                Number of allocations  Used [MiB]  Size [MiB]
 Host                                             155299       10132       13946
 -------------------------------------------------------------------------------

 -------------------------------------------------------------------------------
 -                                                                             -
 -                                GRID STATISTICS                              -
 -                                                                             -
 -------------------------------------------------------------------------------
 LP    KERNEL             BACKEND                              COUNT     PERCENT
 4     integrate general  CPU                                 655680      50.39%
 4     collocate general  CPU                                 644752      49.55%
 0     collocate general  CPU                                    512       0.04%
 0     integrate general  CPU                                    256       0.02%
 -------------------------------------------------------------------------------

 MEMORY| Estimated peak process memory [MiB]                               16169

 -------------------------------------------------------------------------------
 ----                             MULTIGRID INFO                            ----
 -------------------------------------------------------------------------------
 count for grid        1:         477899          cutoff [a.u.]          500.00
 count for grid        2:         418592          cutoff [a.u.]          166.67
 count for grid        3:         472540          cutoff [a.u.]           55.56
 count for grid        4:         225446          cutoff [a.u.]           18.52
 total gridlevel count  :        1594477

 -------------------------------------------------------------------------------
 -                                                                             -
 -                         MESSAGE PASSING PERFORMANCE                         -
 -                                                                             -
 -------------------------------------------------------------------------------

 ROUTINE             CALLS      AVE VOLUME [Bytes]
 MP_Group         79543661
 MP_Bcast         51692087                    307.
 MP_Allreduce    141793059                    208.
 MP_Sync         132785538
 MP_Alltoall      63591142                    462.
 MP_SendRecv         44958                   4672.
 MP_ISendRecv        45720                   4672.
 MP_Wait           2297452
 MP_comm_split    49533055
 MP_ISend         29611124                   2241.
 MP_IRecv          9518974                   2382.
 -------------------------------------------------------------------------------


 -------------------------------------------------------------------------------
 -                                                                             -
 -                           R E F E R E N C E S                               -
 -                                                                             -
 -------------------------------------------------------------------------------
 
 CP2K version 2025.2 (Development Version), the CP2K developers group (2025).
 CP2K is freely available from https://www.cp2k.org/ .
 
 M. Graml, K. Zollner, D. Hernangómez-Pérez, P. E. Faria Junior, J. Wilhelm.
 J. Chem. Theory Comput. 20, 2202-2208 (2024).
 Low-scaling GW algorithm applied to twisted transition-metal dichalcogenide 
 heterobilayers.
 https://doi.org/10.1021/acs.jctc.3c01230

 T. D. Kuehne, M. Iannuzzi, M. Del Ben, V. V. Rybkin, P. Seewald, F. Stein, T. 
 Laino, R. Z. Khaliullin, O. Schuett, F. Schiffmann, D. Golze, J. Wilhelm, S. 
 Chulkov, M. H. Bani-Hashemian, V. Weber, U. Borstnik, M. Taillefumier, A. S. 
 Jakobovits, A. Lazzaro, H. Pabst, T. Mueller, R. Schade, M. Guidon, S. 
 Andermatt, N. Holmberg, G. K. Schenter, A. Hehn, A. Bussy, F. Belleflamme, G. 
 Tabacchi, A. Gloess, M. Lass, I. Bethune, C. J. Mundy, C. Plessl, M. Watkins, 
 J. VandeVondele, M. Krack, J. Hutter.
 J. Chem. Phys. 152, 194103 (2020).
 CP2K: An electronic structure and molecular dynamics software package - 
 Quickstep: Efficient and accurate electronic structure calculations.
 https://doi.org/10.1063/5.0007045

 A. Togo, I. Tanaka.
 arXiv, 1808.01590 (2018).
 Spglib : a software library for crystal symmetry search.

 O. Schuett, P. Messmer, J. Hutter, J. VandeVondele.
 Electronic Structure Calculations on Graphics Processing Units, 173-190 (2016).
 GPU-Accelerated Sparse Matrix-Matrix Multiplication for Linear Scaling Density 
 Functional Theory.
 https://doi.org/10.1002/9781118670712.ch8

 A. Heinecke, G. Henry, M. Hutchinson, H. Pabst.
 Proceedings of Intl. Supercomputing Conference, 981-991 (2016).
 LIBXSMM: Accelerating Small Matrix Multiplications by Runtime Code Generation.
 https://doi.org/10.1109/SC.2016.83

 J. Hutter, M. Iannuzzi, F. Schiffmann, J. VandeVondele.
 WIREs Comput Mol Sci. 4, 15-25 (2014).
 CP2K: atomistic simulations of condensed matter systems.
 https://doi.org/10.1002/wcms.1159

 U. Borstnik, J. VandeVondele, V. Weber, J. Hutter.
 Parallel Comput. 40, 47-58 (2014).
 Sparse matrix multiplication: The distributed block-compressed sparse row 
 library.
 https://doi.org/10.1016/j.parco.2014.03.012

 A. Marek, V. Blum, R. Johanni, V. Havu, B. Lang, T. Auckenthaler, A. Heinecke, 
 H. Bungartz, H. Lederer.
 J. Phys. Condens. Matter 26, 213201 (2014).
 The ELPA library: scalable parallel eigenvalue solutions for electronic 
 structure theory and computational science.
 https://doi.org/10.1088/0953-8984/26/21/213201

 J. VandeVondele, J. Hutter.
 J. Chem. Phys. 127, 114105 (2007).
 Gaussian basis sets for accurate calculations on molecular systems in gas and 
 condensed phases.
 https://doi.org/10.1063/1.2770708

 J. VandeVondele, M. Krack, F. Mohamed, M. Parrinello, T. Chassaing, J. Hutter.
 Comput. Phys. Commun. 167, 103-128 (2005).
 QUICKSTEP: Fast and accurate density functional calculations using a mixed 
 Gaussian and plane waves approach.
 https://doi.org/10.1016/j.cpc.2004.12.014

 M. Krack.
 Theor. Chem. Acc. 114, 145-152 (2005).
 Pseudopotentials for H to Kr optimized for gradient-corrected 
 exchange-correlation functionals.
 https://doi.org/10.1007/s00214-005-0655-y

 M. Frigo, S. G. Johnson.
 Proc. IEEE 93, 216-231 (2005).
 The design and implementation of FFTW3.
 https://doi.org/10.1109/JPROC.2004.840301

 C. Hartwigsen, S. Goedecker, J. Hutter.
 Phys. Rev. B 58, 3641-3662 (1998).
 Relativistic separable dual-space Gaussian pseudopotentials from H to Rn.
 https://doi.org/10.1103/PhysRevB.58.3641

 G. Lippert, J. Hutter, M. Parrinello.
 Mol. Phys. 92, 477-487 (1997).
 A hybrid Gaussian and plane wave density functional scheme.
 https://doi.org/10.1080/002689797170220

 S. Goedecker, M. Teter, J. Hutter.
 Phys. Rev. B 54, 1703-1710 (1996).
 Separable dual-space Gaussian pseudopotentials.
 https://doi.org/10.1103/PhysRevB.54.1703

 J. P. Perdew, K. Burke, M. Ernzerhof.
 Phys. Rev. Lett. 77, 3865-3868 (1996).
 Generalized gradient approximation made simple.
 https://doi.org/10.1103/PhysRevLett.77.3865


 -------------------------------------------------------------------------------
 -                                                                             -
 -                                T I M I N G                                  -
 -                                                                             -
 -------------------------------------------------------------------------------
 SUBROUTINE                       CALLS  ASD         SELF TIME        TOTAL TIME
                                MAXIMUM       AVERAGE  MAXIMUM  AVERAGE  MAXIMUM
 CP2K                                 1  1.0     0.04     0.05 20923.11 20923.59
 qs_energies                          1  2.0     0.00     0.00 20701.65 20702.12
 qs_energies_properties               1  3.0     0.00     0.00 20386.14 20386.61
 post_scf_bandstructure               1  4.0     0.00     0.00 20386.14 20386.61
 gw                                   1  5.0     0.00     0.00 20367.68 20368.14
 gw_calc_small_cell_full_kp           1  6.0     0.00     0.00 20325.84 20326.30
 dbt_total                      *******  9.6    52.10    54.92 15807.51 18004.84
 dbt_contract                   ******* 10.4   104.93   109.74 15105.20 17285.86
 dbt_tas_multiply               ******* 12.9    15.91    17.29 14369.73 16527.17
 dbt_tas_total                  ******* 13.9   579.04   610.87 14359.73 16516.90
 compute_chi                          1  7.0     0.09     0.40 12492.11 12492.50
 dbt_tas_estimate_result_nze    9374982 13.4   269.56   283.41  7741.50  9578.00
 G_times_3c                       46962  8.0    15.59    16.51  6857.83  8148.15
 compute_Sigma_c                      1  7.0     0.00     0.00  5882.34  5882.76
 mp_sync                        ******* 12.7  2621.18  4881.79  2621.18  4881.79
 dbm_reserve_blocks             ******* 16.7  2959.18  4112.51  2959.18  4112.51
 contract_M_occ_vir_to_chi          149  8.0    74.90    81.06  3107.80  3909.25
 contract_to_Sigma                  320  8.0    46.19    51.11  3582.39  3863.34
 dbt_tas_dbm                    ******* 14.9    14.37    15.64  2963.28  3341.78
 dbm_multiply                   ******* 16.9  2932.27  3309.11  2932.27  3309.11
 convert_to_new_pgrid           ******* 14.9    81.21    86.12  2739.65  3215.24
 dbm_copy                       ******* 15.9  2658.43  3129.77  2658.43  3129.77
 dbt_tas_reserve_blocks_index   ******* 15.9    39.47    42.08  1837.73  2790.52
 contract_W                         166  8.0    17.75    18.99  2553.29  2764.56
 reshape_mm_small               ******* 14.9  1075.99  1167.96  2357.99  2589.89
 contract_to_Sigma_3c_x_G       3499041  9.0     4.26     4.63  2262.23  2422.47
 dbt_tas_reserve_blocks_templat ******* 14.2    32.29    35.72  1106.11  1896.74
 dbt_tas_mm_1N                  4691764 15.5     2.43     2.94  1461.02  1652.89
 dbt_tas_replicate              ******* 14.9   185.61   195.46  1455.86  1602.13
 contract_to_Sigma_contract       48246  9.0    15.00    16.25  1258.02  1376.23
 dbt_tas_reshape                ******* 15.5    88.28    93.87  1074.34  1282.44
 compute_Sigma_x                      1  7.0     0.00     0.00  1214.32  1214.54
 dbt_tas_mm_2                   5428072 16.0     4.85     5.32   865.00  1126.36
 dbt_tas_create_split           ******* 16.0    30.13    32.28  1052.88  1124.18
 dbt_tas_create_split_rows_or_c ******* 17.0   112.11   119.95  1022.75  1092.29
 dbm_add                        ******* 14.9   837.94  1058.18   837.94  1058.18
 reshape_mm_compatible          ******* 14.9   143.30   150.37   977.53  1042.60
 dbt_tas_reshape_buffer_obtain  ******* 16.5    88.52    96.20   769.10   965.16
 dbt_copy                       ******* 10.9    79.41    85.30   770.27   870.15
 dbt_tas_distribution_new       ******* 15.8   374.82   399.76   735.63   786.49
 change_split                   ******* 15.4    46.90    49.83   656.97   702.38
 dbt_tas_mm_3T                  8693026 16.1     4.79     5.45   619.66   669.40
 mp_alltoall_i22                1251433  9.7   557.50   641.15   557.50   641.15
 G_occ_vir                          121  8.0     0.27     0.30   605.99   614.51
 dbcsr_complete_redistribute     635490  9.3    11.67    33.17   560.64   601.94
 dbt_reshape                    ******* 11.8   346.01   442.06   499.97   600.09
 compute_W_real_space                 1  7.0     1.33     1.57   564.19   564.53
 mp_cart_create                 ******* 16.7   463.97   496.04   514.28   549.24
 fm_to_local_tensor              146072  9.0     1.21     1.55   472.52   473.08
 get_t_3c_int                   *******  9.3    22.06    23.32   390.28   441.12
 dbt_remap                      1658045 11.0   148.42   173.36   404.39   439.01
 compute_Minv_and_Vsqrt               1  8.0     0.01     0.01   438.57   438.72
 build_2c_coulomb_matrix_kp_sma       2  9.0     1.59     4.79   436.49   436.64
 copy_fm_to_dbcsr                266195  9.1     0.56     0.58   378.48   426.93
 mp_comm_dup                    ******* 18.5   319.36   346.22   348.03   377.29
 global_matrix_to_local_matrix   146072 10.0     1.29     2.08    97.79   369.56
 copy_dbcsr_to_fm                369295  7.8     1.88     1.97   323.86   352.58
 send_data                       146072 11.0     0.09     0.10    57.73   336.72
 communicate_buffer              146072 12.0     0.55     9.75    57.64   336.62
 build_2c_coulomb_matrix_kp_sma  655360 10.0   313.60   323.58   313.60   323.58
 dbt_tas_merge                  5428072 15.0    55.89    59.58   189.37   316.55
 scf_env_do_scf                       1  3.0     0.00     0.00   314.97   314.98
 scf_env_do_scf_inner_loop          117  4.0     0.02     0.02   314.97   314.98
 mp_waitall_1                   2078688 10.5    58.81   309.48    58.81   309.48
 dbt_destroy                    ******* 11.0   266.56   301.89   273.32   308.78
 qs_scf_new_mos_kp                  117  5.0     0.00     0.00   297.83   298.29
 do_general_diag_kp                 117  6.0     0.56     0.58   297.83   298.29
 parallel_gemm_cfm               273920  9.0     0.18     0.21   263.37   274.58
 parallel_gemm_cfm_cosma         273920 10.0   263.19   274.42   263.19   274.42
 mp_comm_split_direct           ******* 18.0   217.86   230.87   232.40   245.90
 dbcsr_desymmetrize_deep         615943  8.1     4.61     5.42   198.04   233.78
 bs_env_release                       1  2.0     0.33     0.45   187.38   219.60
 mp_comm_free                   ******* -8.1   203.95   218.86   203.95   218.86
 local_dbt_to_global_fm              91  8.0     0.14     0.15   201.00   201.01
 dbt_permute_index              ******* 12.2   155.60   165.39   175.87   187.23
 compute_QP_energies                  1  7.0     0.11     0.32   172.88   173.57
 trafo_to_k_and_nn                71492  8.0     0.22     0.26   172.67   173.22
 reshape_mm_template            3316090 15.5   104.44   111.02   152.71   163.31
 dbt_tas_create_new             ******* 15.3   144.87   156.04   144.87   156.04
 dbt_align_index                ******* 11.4    25.77    27.29   145.82   153.82
 dbt_tas_reshape_buffer_fill    ******* 16.5   137.25   146.56   137.25   146.56
 local_dbt_to_global_mat          87451  9.0     0.25     0.26    51.29   136.36
 local_matrix_to_global_matrix    87451 10.0     0.16     0.18    42.93   128.82
 dbt_tas_mp_comm                ******* 13.1    14.80    15.80   116.08   125.77
 dbt_reserve_blocks_index_array ******* 12.8     9.72    10.99   105.59   117.72
 comm_data                        87451 11.0     0.17     2.17    34.76   116.01
 mp_waitall_2                    174902 12.0    33.00   112.72    33.00   112.72
 dbt_reserve_blocks_index       ******* 13.8    12.21    13.26    99.23   110.40
 dbt_distribution_new_expert    3608244 12.4    17.80    18.70   101.76   109.75
 mp_max_i                       ******* 11.4    38.56   104.90    38.56   104.90
 mp_cart_sub                     738669  9.8   104.29   104.47   104.29   104.47
 dbt_tas_copy                   6924750 12.3    44.76    51.21    92.54   104.09
 add_R                          *******  9.3    58.87    62.65    89.72    95.44
 mp_comm_size                   ******* -3.2    82.94    92.02    82.94    92.02
 mp_cart_get                    *******  3.9    82.35    88.39    82.35    88.39
 mp_sum_dm                       655476 10.0    63.07    69.77    63.07    69.77
 kpoint_density_transform           117  7.0     0.18     0.19    61.99    62.07
 mp_comm_rank                   ******* -3.2    55.08    59.52    55.08    59.52
 dbt_create_new                 1804122 11.9    11.47    12.10    54.41    57.70
 fm_add_ikp_to_rs                123904  9.0    36.13    37.32    55.21    57.07
 is_cell_in_index_to_cell       ******* -7.1    53.19    56.65    53.19    56.65
 dbt_communicate_buffer         ******* 12.8    47.21    53.34    47.21    53.34
 fm_to_local_array                  934  8.1     5.54     8.46    51.23    51.32
 add_V_L                         327680 10.0     1.45    46.56     1.45    46.56
 mp_sum_dm3                        1112  8.9    46.38    46.47    46.38    46.47
 rskp_transform                  123324  7.0     0.64    46.46     0.64    46.46
 cp_fm_start_copy_general        359424  7.3     1.51     2.75    42.59    43.95
 dbm_filter                     ******* 14.9    40.29    42.81    40.29    42.81
 create_and_init_bs_env_for_gw        1  6.0     0.00     0.00    41.83    41.84
 dbt_copy_nocomm                1443284 11.0    23.42    26.26    35.58    40.00
 fm_MWM_R_t_to_local_tensor_W_R      30  8.0     0.02     0.02    39.38    39.41
 destroy_t_2d                        62  8.0    16.31    19.98    34.98    38.49
 dbt_create_3c_R1_R2                 62  8.0     8.58     9.43    35.37    36.53
 fm_trafo_rs_to_ikp               71492  9.0    20.82    21.33    33.19    36.05
 mp_allgather_i                  718848  8.3    32.70    34.96    32.70    34.96
 add_ikp_to_rs                  *******  9.9    33.33    34.65    33.33    34.65
 add_rs_to_ikp                  *******  9.9    31.50    34.31    31.50    34.31
 mp_sum_i                       ******* 16.0    33.07    34.09    33.07    34.09
 dbt_tas_reshape_communicate_bu ******* 16.5    11.89    13.15    28.31    33.77
 mp_alltoall_i                  ******* 15.4    29.58    32.69    29.58    32.69
 get_V_tr_R                          34  9.0     0.07     0.08    31.04    31.07
 mult_W_with_Minv                    30  8.0     0.10     0.11    30.07    30.07
 send_sizes_1                    146072 11.0     0.08     0.09    29.14    29.84
 mp_alltoall_d11v               3754537 10.2     9.46    29.68     9.46    29.68
 destroy_t_1d                        98  8.0     0.19     0.22    26.85    28.97
 dbt_create_template            9972301  9.0    27.95    28.87    27.95    28.87
 dbt_tas_communicate_buffer     ******* 17.2    23.07    28.36    23.07    28.36
 dbt_tas_reshape_get_coord      ******* 16.5    25.57    27.22    25.57    27.22
 compute_3c_integrals                 1  7.0     0.16     0.17    26.84    26.84
 mp_sum_l                       ******* 15.0    24.70    26.63    24.70    26.63
 build_3c_integrals                   1  8.0    19.52    19.80    25.78    26.03
 dbt_pgrid_create_expert        3608247 13.4     3.82     4.14    23.90    25.75
 dbm_scale                      ******* 14.6    21.33    23.28    21.33    23.28
 trafo_rs_to_ikp                  10736  8.1     3.36     3.56    22.50    23.00
 dbt_tas_reshape_alltoall       ******* 16.5    10.64    12.36    19.77    22.65
 transform_dmat                   59904  8.0     0.30    22.45     0.30    22.45
 mp_alltoall_i11v               2522413 10.0    15.84    20.68    15.84    20.68
 dbcsr_finalize                 2216604 10.7     3.59     4.25    15.57    18.35
 add_ikp_to_all_rs                 9848  8.0     2.97     3.13    17.24    17.70
 dbt_nd_mp_comm                 1804117 11.9     2.43     2.62    16.05    17.10
 mp_isend_dv                    ******* 10.3     2.00    16.34     2.00    16.34
 dbt_create_2c_R                     98  8.0    10.73    15.79    11.03    16.09
 mp_bcast_i                     ******* 18.0    13.35    15.27    13.35    15.27
 dbt_create_matrix               146072 10.0     0.80     0.84    14.31    14.77
 dbt_reserve_blocks_template    1443284 12.0     2.18     2.46    12.16    13.87
 create_and_init_bs_env               1  5.0     0.00     0.00    13.65    13.65
 compute_cfm_mo_coeff_kp_and_ei       1  6.0     0.00     0.00    13.65    13.65
 mp_dims_create                 ******* 14.3    11.28    12.68    11.28    12.68
 dbt_tas_replicate_communicate_ ******* 15.9     7.01     7.70    11.74    12.66
 get_data                        146072 11.0     2.33    11.07     2.54    11.32
 dbt_tas_replicate_alltoall     ******* 15.9     6.02     6.77     9.65    10.77
 mp_waitany                       43862 11.5     9.20     9.79     9.20     9.79
 dbt_distribution_destroy       3608244 12.4     6.80     7.48     8.76     9.56
 qs_ks_update_qs_env                117  5.0     0.00     0.00     7.78     9.27
 mp_cart_rank                   ******* 15.9     8.34     9.18     8.34     9.18
 cp_cfm_geeig_canon                1172  7.0     0.00     0.00     9.06     9.09
 mp_sum_dv                        78640  8.9     6.64     8.88     6.64     8.88
 get_Minv_Vtr_Minv_R                  1  8.0     0.00     0.01     8.74     8.76
 dbcsr_merge_all                 858807 11.5     5.39     5.87     7.71     8.66
 cp_cfm_heevd                      2812  8.0     0.00     0.00     8.61     8.65
 cp_cfm_heevd_base                 2812  9.0     8.61     8.64     8.61     8.64
 qs_ks_build_kohn_sham_matrix       120  7.0     0.03     0.04     7.06     8.59
 rebuild_ks_matrix                  117  6.0     0.00     0.00     6.67     8.16
 sum_up_and_integrate               120  8.0     0.00     0.00     6.53     8.04
 integrate_v_rspace                 120  9.0     0.00     0.00     6.53     8.04
 dbcsr_filter_anytype            684222 10.9     1.29     1.38     5.39     7.76
 dbt_buffer_get_index           ******* 16.8     6.60     7.53     6.60     7.53
 mp_bcast_iv                    1438036  8.3     6.32     7.14     6.32     7.14
 rsmat_to_kp                       3516  7.3     0.03     0.03     6.65     6.70
 qs_rho_update_rho_low              118  5.0     0.00     0.00     6.60     6.60
 calculate_rho_elec                 118  6.0     0.00     0.00     6.60     6.60
 transfer_rs2pw                     474  8.0     0.00     0.00     5.85     6.37
 power                            20408  8.0     0.74     0.81     6.15     6.37
 density_rs2pw                      118  7.0     0.00     0.00     5.84     6.35
 set_blocks                       87451 11.0     0.89     3.11     2.71     6.17
 transfer_rs2pw_500                 120  9.0     0.09     0.11     5.64     6.16
 potential_pw2rs                    120 10.0     0.00     0.00     6.05     6.05
 transfer_pw2rs                     481 11.0     0.00     0.00     5.94     5.94
 setup_parallelization_Delta_R        1  7.0     0.00     0.00     5.89     5.89
 compute_n_tensor_ops_Delta_R         1  8.0     1.62     2.39     5.86     5.86
 diag_complex                     20408  9.0     5.41     5.64     5.41     5.64
 dbt_tas_merge_alltoall         5428072 16.0     2.81     3.06     5.10     5.52
 dbt_tas_merge_communicate_buff 5428072 16.0     3.02     3.25     4.94     5.37
 dbcsr_create_new               2123825  9.5     4.06     4.31     5.09     5.35
 dos_pdos_ldos                        1  5.0     0.00     0.00     4.82     4.83
 send_sizes_2                    146072 11.0     0.09     0.10     4.61     4.75
 trafo_V_xc_R_to_kp                   1  7.0     0.00     0.01     4.64     4.65
 compute_proj_mo_on_kind           1172  6.0     0.01     0.01     4.45     4.46
 transfer_pw2rs_500                 121 12.0     0.08     0.10     4.17     4.20
 dbcsr_iterator_start           5098285 10.5     3.12     3.22     3.98     4.14
 copy_fm_to_dbcsr_bc             266195 10.1     1.11     1.24     3.67     3.94
 abc_contract_xsmm               337412  9.0     3.47     3.76     3.47     3.76
 mp_isend_im2                   ******* 12.7     0.10     3.36     0.10     3.36
 dbt_copy_matrix_to_tensor       146072 10.0     0.53     0.55     2.83     3.36
 dbcsr_destroy                  1961719  9.3     1.65     1.86     2.99     3.25
 dbcsr_work_create              1474750 10.0     1.83     2.17     2.72     3.24
 mp_sum_iv                           24  6.1     1.90     3.23     1.90     3.23
 comm_size                        87451 11.0     0.07     0.08     2.96     3.07
 dbcsr_data_release             ******* 11.2     2.54     2.96     2.54     2.96
 dbcsr_iterator_stop            5098285 10.5     2.22     2.34     2.81     2.95
 build_2c_integrals                  34 10.0     0.05     1.41     0.12     2.80
 hybrid_alltoall_any             615943  9.1     1.47     1.52     2.29     2.62
 dbt_reserve_blocks_matrix_to_t  146072 11.0     0.35     0.37     2.10     2.61
 dbcsr_data_new                 ******* 10.6     2.23     2.60     2.23     2.60
 dbcsr_work_destroy_all         1474750 10.9     1.60     1.79     2.12     2.40
 fill_buffer                      87451 11.0     1.23     2.18     1.36     2.31
 reserve_blocks                  146072 11.0     0.32     0.34     1.64     2.20
 write_kpoints_restart              117  5.0     0.00     0.09     2.13     2.17
 alloc_block_3c                       1  9.0     0.25     0.26     2.10     2.14
 -------------------------------------------------------------------------------

 The number of warnings for this run is : 1
 
 -------------------------------------------------------------------------------
  **** **** ******  **  PROGRAM ENDED AT                 2025-10-03 07:43:55.688
 ***** ** ***  *** **   PROGRAM RAN ON                    n2lcn0138.ab2021.local
 **    ****   ******    PROGRAM RAN BY                                  metdyn02
 ***** **    ** ** **   PROGRAM PROCESS ID                                 55612
  **** **  *******  **  PROGRAM STOPPED IN /scratch/hpc-prf-metdyn/metdyn02_Remi
                                           /14_hBN/aug-SZV-MOLOPT/GAPW/kgrid/32
