 DBCSR| CPU Multiplication driver                                           XSMM (U)
 DBCSR| Multrec recursion limit                                              512 (U)
 DBCSR| Multiplication stack size                                           1000 (D)
 DBCSR| Maximum elements for images                                    UNLIMITED (U)
 DBCSR| Multiplicative factor virtual images                                   1 (U)
 DBCSR| Use multiplication densification                                       T (D)
 DBCSR| Multiplication size stacks                                             3 (U)
 DBCSR| Use memory pool for CPU allocation                                     F (U)
 DBCSR| Number of 3D layers                                               SINGLE (U)
 DBCSR| Use MPI memory allocation                                              F (U)
 DBCSR| Use RMA algorithm                                                      F (U)
 DBCSR| Use Communication thread                                               T (U)
 DBCSR| Communication thread load                                             83 (D)
 DBCSR| MPI: My process id                                                     0
 DBCSR| MPI: Number of processes                                             256
 DBCSR| OMP: Current number of threads                                         2
 DBCSR| OMP: Max number of threads                                             2
 DBCSR| Split modifier for TAS multiplication algorithm                  1.0E+00 (U)


  **** **** ******  **  PROGRAM STARTED AT               2025-10-01 17:14:12.133
 ***** ** ***  *** **   PROGRAM STARTED ON                n2lcn0141.ab2021.local
 **    ****   ******    PROGRAM STARTED BY                              metdyn02
 ***** **    ** ** **   PROGRAM PROCESS ID                                936050
  **** **  *******  **  PROGRAM STARTED IN /scratch/hpc-prf-metdyn/metdyn02_Remi
                                           /14_hBN/DZVP-MOLOPT

 CP2K| version string:                 CP2K version 2025.2 (Development Version)
 CP2K| source code revision number:                                  git:8d80afc
 CP2K| cp2kflags: omp libint fftw3 libxc libgrpp elpa parallel scalapack mpi_f08
 CP2K|             cosma xsmm plumed2 spglib libvori libbqb libvdwxc hdf5
 CP2K| is freely available from                            https://www.cp2k.org/
 CP2K| Program compiled at                         Mon Sep  8 11:02:08 CEST 2025
 CP2K| Program compiled on                                              n2login1
 CP2K| Program compiled for                                                local
 CP2K| Data directory path    /opt/software/pc2/EB-SW/software/CP2K/2025.2-foss-
 CP2K| Input file name                                                    GW.inp

 GLOBAL| Force Environment number                                              1
 GLOBAL| Basis set file name                                        BASIS_MOLOPT
 GLOBAL| Potential file name                                  GTH_SOC_POTENTIALS
 GLOBAL| MM Potential file name                                     MM_POTENTIAL
 GLOBAL| Coordinate file name                                      __STD_INPUT__
 GLOBAL| Method name                                                        CP2K
 GLOBAL| Project name                                                        hBN
 GLOBAL| Run type                                                         ENERGY
 GLOBAL| FFT library                                                       FFTW3
 GLOBAL| Diagonalization library                                            ELPA
 GLOBAL| Cholesky decomposition library                                ScaLAPACK
 GLOBAL| DGEMM library                                                      BLAS
 GLOBAL| Minimum number of eigenvectors for ELPA usage                        16
 GLOBAL| Orthonormality check for eigenvectors                          DISABLED
 GLOBAL| Matrix multiplication library                                     COSMA
 GLOBAL| All-to-all communication in single precision                          F
 GLOBAL| FFTs using library dependent lengths                                  F
 GLOBAL| Grid backend                                                       AUTO
 GLOBAL| Global print level                                               MEDIUM
 GLOBAL| MPI I/O enabled                                                       T
 GLOBAL| Total number of message passing processes                           256
 GLOBAL| Number of threads for this process                                    2
 GLOBAL| This output is from process                                           0
 GLOBAL| OpenMP stack size per thread (OMP_STACKSIZE)                    default
 GLOBAL| CPU model name                          AMD EPYC 7763 64-Core Processor
 GLOBAL| CPUID                                                              1002

 MEMORY| system memory details [Kb]
 MEMORY|                        rank 0           min           max       average
 MEMORY| MemTotal           1056620456    1056620456    1056620512    1056620480
 MEMORY| MemFree            1018827416    1006639640    1023005860    1017302786
 MEMORY| Buffers                197612         50212        197612         93527
 MEMORY| Cached               15204236      13825256      25409700      17391621
 MEMORY| Slab                  5263788       2228600       6714620       4740067
 MEMORY| SReclaimable          2121176        682580       2780960       1798976
 MEMORY| MemLikelyFree      1036350440    1034894400    1038877916    1036586911


 *** Fundamental physical constants (SI units) ***

 *** Literature: B. J. Mohr and B. N. Taylor,
 ***             CODATA recommended values of the fundamental physical
 ***             constants: 2006, Web Version 5.1
 ***             http://physics.nist.gov/constants

 Speed of light in vacuum [m/s]                             2.99792458000000E+08
 Magnetic constant or permeability of vacuum [N/A**2]       1.25663706143592E-06
 Electric constant or permittivity of vacuum [F/m]          8.85418781762039E-12
 Planck constant (h) [J*s]                                  6.62606896000000E-34
 Planck constant (h-bar) [J*s]                              1.05457162825177E-34
 Elementary charge [C]                                      1.60217648700000E-19
 Electron mass [kg]                                         9.10938215000000E-31
 Electron g factor [ ]                                     -2.00231930436220E+00
 Proton mass [kg]                                           1.67262163700000E-27
 Fine-structure constant                                    7.29735253760000E-03
 Rydberg constant [1/m]                                     1.09737315685270E+07
 Avogadro constant [1/mol]                                  6.02214179000000E+23
 Boltzmann constant [J/K]                                   1.38065040000000E-23
 Atomic mass unit [kg]                                      1.66053878200000E-27
 Bohr radius [m]                                            5.29177208590000E-11

 *** Conversion factors ***

 [u] -> [a.u.]                                              1.82288848426455E+03
 [Angstrom] -> [Bohr] = [a.u.]                              1.88972613288564E+00
 [a.u.] = [Bohr] -> [Angstrom]                              5.29177208590000E-01
 [a.u.] -> [s]                                              2.41888432650478E-17
 [a.u.] -> [fs]                                             2.41888432650478E-02
 [a.u.] -> [J]                                              4.35974393937059E-18
 [a.u.] -> [N]                                              8.23872205491840E-08
 [a.u.] -> [K]                                              3.15774647902944E+05
 [a.u.] -> [kJ/mol]                                         2.62549961709828E+03
 [a.u.] -> [kcal/mol]                                       6.27509468713739E+02
 [a.u.] -> [Pa]                                             2.94210107994716E+13
 [a.u.] -> [bar]                                            2.94210107994716E+08
 [a.u.] -> [atm]                                            2.90362800883016E+08
 [a.u.] -> [eV]                                             2.72113838565563E+01
 [a.u.] -> [Hz]                                             6.57968392072181E+15
 [a.u.] -> [1/cm] (wave numbers)                            2.19474631370540E+05
 [a.u./Bohr**2] -> [1/cm]                                   5.14048714338585E+03
 

 CELL_TOP| Volume [angstrom^3]:                                        81.840700
 CELL_TOP| Vector a [angstrom     2.510     0.000     0.000   |a| =     2.510000
 CELL_TOP| Vector b [angstrom    -1.255     2.174     0.000   |b| =     2.510000
 CELL_TOP| Vector c [angstrom     0.000     0.000    15.000   |c| =    15.000000
 CELL_TOP| Angle (b,c), alpha [degree]:                                90.000000
 CELL_TOP| Angle (a,c), beta  [degree]:                                90.000000
 CELL_TOP| Angle (a,b), gamma [degree]:                               120.000000
 CELL_TOP| Numerically orthorhombic:                                          NO
 CELL_TOP| Periodicity                                                        XY

 GENERATE|  Preliminary Number of Bonds generated:                             0
 GENERATE|  Achieved consistency in connectivity generation.

 CELL| Volume [angstrom^3]:                                            81.840700
 CELL| Vector a [angstrom]:       2.510     0.000     0.000   |a| =     2.510000
 CELL| Vector b [angstrom]:      -1.255     2.174     0.000   |b| =     2.510000
 CELL| Vector c [angstrom]:       0.000     0.000    15.000   |c| =    15.000000
 CELL| Angle (b,c), alpha [degree]:                                    90.000000
 CELL| Angle (a,c), beta  [degree]:                                    90.000000
 CELL| Angle (a,b), gamma [degree]:                                   120.000000
 CELL| Numerically orthorhombic:                                              NO
 CELL| Periodicity                                                            XY

 CELL_REF| Volume [angstrom^3]:                                        81.840700
 CELL_REF| Vector a [angstrom     2.510     0.000     0.000   |a| =     2.510000
 CELL_REF| Vector b [angstrom    -1.255     2.174     0.000   |b| =     2.510000
 CELL_REF| Vector c [angstrom     0.000     0.000    15.000   |c| =    15.000000
 CELL_REF| Angle (b,c), alpha [degree]:                                90.000000
 CELL_REF| Angle (a,c), beta  [degree]:                                90.000000
 CELL_REF| Angle (a,b), gamma [degree]:                               120.000000
 CELL_REF| Numerically orthorhombic:                                          NO
 CELL_REF| Periodicity                                                        XY

 *******************************************************************************
                                    Kpoints
 *******************************************************************************
 BRILLOUIN| K-point scheme                                        Monkhorst-Pack
 BRILLOUIN| K-Point grid                                            48   48    1
 BRILLOUIN| Accuracy in Symmetry determination                      0.100000E-05
 BRILLOUIN| K-Point point group symmetrization                               OFF
 BRILLOUIN| Wavefunction type                                            COMPLEX
 BRILLOUIN| List of Kpoints [2 Pi/Bohr]                                     1152
 BRILLOUIN| Number           Weight            X              Y              Z
 BRILLOUIN|     1           0.00087       -0.48958       -0.48958        0.00000
 BRILLOUIN|     2           0.00087       -0.48958       -0.46875        0.00000
 BRILLOUIN|     3           0.00087       -0.48958       -0.44792        0.00000
 BRILLOUIN|     4           0.00087       -0.48958       -0.42708        0.00000
 BRILLOUIN|     5           0.00087       -0.48958       -0.40625        0.00000
 BRILLOUIN|     6           0.00087       -0.48958       -0.38542        0.00000
 BRILLOUIN|     7           0.00087       -0.48958       -0.36458        0.00000
 BRILLOUIN|     8           0.00087       -0.48958       -0.34375        0.00000
 BRILLOUIN|     9           0.00087       -0.48958       -0.32292        0.00000
 BRILLOUIN|    10           0.00087       -0.48958       -0.30208        0.00000
 BRILLOUIN|    11           0.00087       -0.48958       -0.28125        0.00000
 BRILLOUIN|    12           0.00087       -0.48958       -0.26042        0.00000
 BRILLOUIN|    13           0.00087       -0.48958       -0.23958        0.00000
 BRILLOUIN|    14           0.00087       -0.48958       -0.21875        0.00000
 BRILLOUIN|    15           0.00087       -0.48958       -0.19792        0.00000
 BRILLOUIN|    16           0.00087       -0.48958       -0.17708        0.00000
 BRILLOUIN|    17           0.00087       -0.48958       -0.15625        0.00000
 BRILLOUIN|    18           0.00087       -0.48958       -0.13542        0.00000
 BRILLOUIN|    19           0.00087       -0.48958       -0.11458        0.00000
 BRILLOUIN|    20           0.00087       -0.48958       -0.09375        0.00000
 BRILLOUIN|    21           0.00087       -0.48958       -0.07292        0.00000
 BRILLOUIN|    22           0.00087       -0.48958       -0.05208        0.00000
 BRILLOUIN|    23           0.00087       -0.48958       -0.03125        0.00000
 BRILLOUIN|    24           0.00087       -0.48958       -0.01042        0.00000
 BRILLOUIN|    25           0.00087       -0.48958        0.01042        0.00000
 BRILLOUIN|    26           0.00087       -0.48958        0.03125        0.00000
 BRILLOUIN|    27           0.00087       -0.48958        0.05208        0.00000
 BRILLOUIN|    28           0.00087       -0.48958        0.07292        0.00000
 BRILLOUIN|    29           0.00087       -0.48958        0.09375        0.00000
 BRILLOUIN|    30           0.00087       -0.48958        0.11458        0.00000
 BRILLOUIN|    31           0.00087       -0.48958        0.13542        0.00000
 BRILLOUIN|    32           0.00087       -0.48958        0.15625        0.00000
 BRILLOUIN|    33           0.00087       -0.48958        0.17708        0.00000
 BRILLOUIN|    34           0.00087       -0.48958        0.19792        0.00000
 BRILLOUIN|    35           0.00087       -0.48958        0.21875        0.00000
 BRILLOUIN|    36           0.00087       -0.48958        0.23958        0.00000
 BRILLOUIN|    37           0.00087       -0.48958        0.26042        0.00000
 BRILLOUIN|    38           0.00087       -0.48958        0.28125        0.00000
 BRILLOUIN|    39           0.00087       -0.48958        0.30208        0.00000
 BRILLOUIN|    40           0.00087       -0.48958        0.32292        0.00000
 BRILLOUIN|    41           0.00087       -0.48958        0.34375        0.00000
 BRILLOUIN|    42           0.00087       -0.48958        0.36458        0.00000
 BRILLOUIN|    43           0.00087       -0.48958        0.38542        0.00000
 BRILLOUIN|    44           0.00087       -0.48958        0.40625        0.00000
 BRILLOUIN|    45           0.00087       -0.48958        0.42708        0.00000
 BRILLOUIN|    46           0.00087       -0.48958        0.44792        0.00000
 BRILLOUIN|    47           0.00087       -0.48958        0.46875        0.00000
 BRILLOUIN|    48           0.00087       -0.48958        0.48958        0.00000
 BRILLOUIN|    49           0.00087       -0.46875       -0.48958        0.00000
 BRILLOUIN|    50           0.00087       -0.46875       -0.46875        0.00000
 BRILLOUIN|    51           0.00087       -0.46875       -0.44792        0.00000
 BRILLOUIN|    52           0.00087       -0.46875       -0.42708        0.00000
 BRILLOUIN|    53           0.00087       -0.46875       -0.40625        0.00000
 BRILLOUIN|    54           0.00087       -0.46875       -0.38542        0.00000
 BRILLOUIN|    55           0.00087       -0.46875       -0.36458        0.00000
 BRILLOUIN|    56           0.00087       -0.46875       -0.34375        0.00000
 BRILLOUIN|    57           0.00087       -0.46875       -0.32292        0.00000
 BRILLOUIN|    58           0.00087       -0.46875       -0.30208        0.00000
 BRILLOUIN|    59           0.00087       -0.46875       -0.28125        0.00000
 BRILLOUIN|    60           0.00087       -0.46875       -0.26042        0.00000
 BRILLOUIN|    61           0.00087       -0.46875       -0.23958        0.00000
 BRILLOUIN|    62           0.00087       -0.46875       -0.21875        0.00000
 BRILLOUIN|    63           0.00087       -0.46875       -0.19792        0.00000
 BRILLOUIN|    64           0.00087       -0.46875       -0.17708        0.00000
 BRILLOUIN|    65           0.00087       -0.46875       -0.15625        0.00000
 BRILLOUIN|    66           0.00087       -0.46875       -0.13542        0.00000
 BRILLOUIN|    67           0.00087       -0.46875       -0.11458        0.00000
 BRILLOUIN|    68           0.00087       -0.46875       -0.09375        0.00000
 BRILLOUIN|    69           0.00087       -0.46875       -0.07292        0.00000
 BRILLOUIN|    70           0.00087       -0.46875       -0.05208        0.00000
 BRILLOUIN|    71           0.00087       -0.46875       -0.03125        0.00000
 BRILLOUIN|    72           0.00087       -0.46875       -0.01042        0.00000
 BRILLOUIN|    73           0.00087       -0.46875        0.01042        0.00000
 BRILLOUIN|    74           0.00087       -0.46875        0.03125        0.00000
 BRILLOUIN|    75           0.00087       -0.46875        0.05208        0.00000
 BRILLOUIN|    76           0.00087       -0.46875        0.07292        0.00000
 BRILLOUIN|    77           0.00087       -0.46875        0.09375        0.00000
 BRILLOUIN|    78           0.00087       -0.46875        0.11458        0.00000
 BRILLOUIN|    79           0.00087       -0.46875        0.13542        0.00000
 BRILLOUIN|    80           0.00087       -0.46875        0.15625        0.00000
 BRILLOUIN|    81           0.00087       -0.46875        0.17708        0.00000
 BRILLOUIN|    82           0.00087       -0.46875        0.19792        0.00000
 BRILLOUIN|    83           0.00087       -0.46875        0.21875        0.00000
 BRILLOUIN|    84           0.00087       -0.46875        0.23958        0.00000
 BRILLOUIN|    85           0.00087       -0.46875        0.26042        0.00000
 BRILLOUIN|    86           0.00087       -0.46875        0.28125        0.00000
 BRILLOUIN|    87           0.00087       -0.46875        0.30208        0.00000
 BRILLOUIN|    88           0.00087       -0.46875        0.32292        0.00000
 BRILLOUIN|    89           0.00087       -0.46875        0.34375        0.00000
 BRILLOUIN|    90           0.00087       -0.46875        0.36458        0.00000
 BRILLOUIN|    91           0.00087       -0.46875        0.38542        0.00000
 BRILLOUIN|    92           0.00087       -0.46875        0.40625        0.00000
 BRILLOUIN|    93           0.00087       -0.46875        0.42708        0.00000
 BRILLOUIN|    94           0.00087       -0.46875        0.44792        0.00000
 BRILLOUIN|    95           0.00087       -0.46875        0.46875        0.00000
 BRILLOUIN|    96           0.00087       -0.46875        0.48958        0.00000
 BRILLOUIN|    97           0.00087       -0.44792       -0.48958        0.00000
 BRILLOUIN|    98           0.00087       -0.44792       -0.46875        0.00000
 BRILLOUIN|    99           0.00087       -0.44792       -0.44792        0.00000
 BRILLOUIN|   100           0.00087       -0.44792       -0.42708        0.00000
 BRILLOUIN|   101           0.00087       -0.44792       -0.40625        0.00000
 BRILLOUIN|   102           0.00087       -0.44792       -0.38542        0.00000
 BRILLOUIN|   103           0.00087       -0.44792       -0.36458        0.00000
 BRILLOUIN|   104           0.00087       -0.44792       -0.34375        0.00000
 BRILLOUIN|   105           0.00087       -0.44792       -0.32292        0.00000
 BRILLOUIN|   106           0.00087       -0.44792       -0.30208        0.00000
 BRILLOUIN|   107           0.00087       -0.44792       -0.28125        0.00000
 BRILLOUIN|   108           0.00087       -0.44792       -0.26042        0.00000
 BRILLOUIN|   109           0.00087       -0.44792       -0.23958        0.00000
 BRILLOUIN|   110           0.00087       -0.44792       -0.21875        0.00000
 BRILLOUIN|   111           0.00087       -0.44792       -0.19792        0.00000
 BRILLOUIN|   112           0.00087       -0.44792       -0.17708        0.00000
 BRILLOUIN|   113           0.00087       -0.44792       -0.15625        0.00000
 BRILLOUIN|   114           0.00087       -0.44792       -0.13542        0.00000
 BRILLOUIN|   115           0.00087       -0.44792       -0.11458        0.00000
 BRILLOUIN|   116           0.00087       -0.44792       -0.09375        0.00000
 BRILLOUIN|   117           0.00087       -0.44792       -0.07292        0.00000
 BRILLOUIN|   118           0.00087       -0.44792       -0.05208        0.00000
 BRILLOUIN|   119           0.00087       -0.44792       -0.03125        0.00000
 BRILLOUIN|   120           0.00087       -0.44792       -0.01042        0.00000
 BRILLOUIN|   121           0.00087       -0.44792        0.01042        0.00000
 BRILLOUIN|   122           0.00087       -0.44792        0.03125        0.00000
 BRILLOUIN|   123           0.00087       -0.44792        0.05208        0.00000
 BRILLOUIN|   124           0.00087       -0.44792        0.07292        0.00000
 BRILLOUIN|   125           0.00087       -0.44792        0.09375        0.00000
 BRILLOUIN|   126           0.00087       -0.44792        0.11458        0.00000
 BRILLOUIN|   127           0.00087       -0.44792        0.13542        0.00000
 BRILLOUIN|   128           0.00087       -0.44792        0.15625        0.00000
 BRILLOUIN|   129           0.00087       -0.44792        0.17708        0.00000
 BRILLOUIN|   130           0.00087       -0.44792        0.19792        0.00000
 BRILLOUIN|   131           0.00087       -0.44792        0.21875        0.00000
 BRILLOUIN|   132           0.00087       -0.44792        0.23958        0.00000
 BRILLOUIN|   133           0.00087       -0.44792        0.26042        0.00000
 BRILLOUIN|   134           0.00087       -0.44792        0.28125        0.00000
 BRILLOUIN|   135           0.00087       -0.44792        0.30208        0.00000
 BRILLOUIN|   136           0.00087       -0.44792        0.32292        0.00000
 BRILLOUIN|   137           0.00087       -0.44792        0.34375        0.00000
 BRILLOUIN|   138           0.00087       -0.44792        0.36458        0.00000
 BRILLOUIN|   139           0.00087       -0.44792        0.38542        0.00000
 BRILLOUIN|   140           0.00087       -0.44792        0.40625        0.00000
 BRILLOUIN|   141           0.00087       -0.44792        0.42708        0.00000
 BRILLOUIN|   142           0.00087       -0.44792        0.44792        0.00000
 BRILLOUIN|   143           0.00087       -0.44792        0.46875        0.00000
 BRILLOUIN|   144           0.00087       -0.44792        0.48958        0.00000
 BRILLOUIN|   145           0.00087       -0.42708       -0.48958        0.00000
 BRILLOUIN|   146           0.00087       -0.42708       -0.46875        0.00000
 BRILLOUIN|   147           0.00087       -0.42708       -0.44792        0.00000
 BRILLOUIN|   148           0.00087       -0.42708       -0.42708        0.00000
 BRILLOUIN|   149           0.00087       -0.42708       -0.40625        0.00000
 BRILLOUIN|   150           0.00087       -0.42708       -0.38542        0.00000
 BRILLOUIN|   151           0.00087       -0.42708       -0.36458        0.00000
 BRILLOUIN|   152           0.00087       -0.42708       -0.34375        0.00000
 BRILLOUIN|   153           0.00087       -0.42708       -0.32292        0.00000
 BRILLOUIN|   154           0.00087       -0.42708       -0.30208        0.00000
 BRILLOUIN|   155           0.00087       -0.42708       -0.28125        0.00000
 BRILLOUIN|   156           0.00087       -0.42708       -0.26042        0.00000
 BRILLOUIN|   157           0.00087       -0.42708       -0.23958        0.00000
 BRILLOUIN|   158           0.00087       -0.42708       -0.21875        0.00000
 BRILLOUIN|   159           0.00087       -0.42708       -0.19792        0.00000
 BRILLOUIN|   160           0.00087       -0.42708       -0.17708        0.00000
 BRILLOUIN|   161           0.00087       -0.42708       -0.15625        0.00000
 BRILLOUIN|   162           0.00087       -0.42708       -0.13542        0.00000
 BRILLOUIN|   163           0.00087       -0.42708       -0.11458        0.00000
 BRILLOUIN|   164           0.00087       -0.42708       -0.09375        0.00000
 BRILLOUIN|   165           0.00087       -0.42708       -0.07292        0.00000
 BRILLOUIN|   166           0.00087       -0.42708       -0.05208        0.00000
 BRILLOUIN|   167           0.00087       -0.42708       -0.03125        0.00000
 BRILLOUIN|   168           0.00087       -0.42708       -0.01042        0.00000
 BRILLOUIN|   169           0.00087       -0.42708        0.01042        0.00000
 BRILLOUIN|   170           0.00087       -0.42708        0.03125        0.00000
 BRILLOUIN|   171           0.00087       -0.42708        0.05208        0.00000
 BRILLOUIN|   172           0.00087       -0.42708        0.07292        0.00000
 BRILLOUIN|   173           0.00087       -0.42708        0.09375        0.00000
 BRILLOUIN|   174           0.00087       -0.42708        0.11458        0.00000
 BRILLOUIN|   175           0.00087       -0.42708        0.13542        0.00000
 BRILLOUIN|   176           0.00087       -0.42708        0.15625        0.00000
 BRILLOUIN|   177           0.00087       -0.42708        0.17708        0.00000
 BRILLOUIN|   178           0.00087       -0.42708        0.19792        0.00000
 BRILLOUIN|   179           0.00087       -0.42708        0.21875        0.00000
 BRILLOUIN|   180           0.00087       -0.42708        0.23958        0.00000
 BRILLOUIN|   181           0.00087       -0.42708        0.26042        0.00000
 BRILLOUIN|   182           0.00087       -0.42708        0.28125        0.00000
 BRILLOUIN|   183           0.00087       -0.42708        0.30208        0.00000
 BRILLOUIN|   184           0.00087       -0.42708        0.32292        0.00000
 BRILLOUIN|   185           0.00087       -0.42708        0.34375        0.00000
 BRILLOUIN|   186           0.00087       -0.42708        0.36458        0.00000
 BRILLOUIN|   187           0.00087       -0.42708        0.38542        0.00000
 BRILLOUIN|   188           0.00087       -0.42708        0.40625        0.00000
 BRILLOUIN|   189           0.00087       -0.42708        0.42708        0.00000
 BRILLOUIN|   190           0.00087       -0.42708        0.44792        0.00000
 BRILLOUIN|   191           0.00087       -0.42708        0.46875        0.00000
 BRILLOUIN|   192           0.00087       -0.42708        0.48958        0.00000
 BRILLOUIN|   193           0.00087       -0.40625       -0.48958        0.00000
 BRILLOUIN|   194           0.00087       -0.40625       -0.46875        0.00000
 BRILLOUIN|   195           0.00087       -0.40625       -0.44792        0.00000
 BRILLOUIN|   196           0.00087       -0.40625       -0.42708        0.00000
 BRILLOUIN|   197           0.00087       -0.40625       -0.40625        0.00000
 BRILLOUIN|   198           0.00087       -0.40625       -0.38542        0.00000
 BRILLOUIN|   199           0.00087       -0.40625       -0.36458        0.00000
 BRILLOUIN|   200           0.00087       -0.40625       -0.34375        0.00000
 BRILLOUIN|   201           0.00087       -0.40625       -0.32292        0.00000
 BRILLOUIN|   202           0.00087       -0.40625       -0.30208        0.00000
 BRILLOUIN|   203           0.00087       -0.40625       -0.28125        0.00000
 BRILLOUIN|   204           0.00087       -0.40625       -0.26042        0.00000
 BRILLOUIN|   205           0.00087       -0.40625       -0.23958        0.00000
 BRILLOUIN|   206           0.00087       -0.40625       -0.21875        0.00000
 BRILLOUIN|   207           0.00087       -0.40625       -0.19792        0.00000
 BRILLOUIN|   208           0.00087       -0.40625       -0.17708        0.00000
 BRILLOUIN|   209           0.00087       -0.40625       -0.15625        0.00000
 BRILLOUIN|   210           0.00087       -0.40625       -0.13542        0.00000
 BRILLOUIN|   211           0.00087       -0.40625       -0.11458        0.00000
 BRILLOUIN|   212           0.00087       -0.40625       -0.09375        0.00000
 BRILLOUIN|   213           0.00087       -0.40625       -0.07292        0.00000
 BRILLOUIN|   214           0.00087       -0.40625       -0.05208        0.00000
 BRILLOUIN|   215           0.00087       -0.40625       -0.03125        0.00000
 BRILLOUIN|   216           0.00087       -0.40625       -0.01042        0.00000
 BRILLOUIN|   217           0.00087       -0.40625        0.01042        0.00000
 BRILLOUIN|   218           0.00087       -0.40625        0.03125        0.00000
 BRILLOUIN|   219           0.00087       -0.40625        0.05208        0.00000
 BRILLOUIN|   220           0.00087       -0.40625        0.07292        0.00000
 BRILLOUIN|   221           0.00087       -0.40625        0.09375        0.00000
 BRILLOUIN|   222           0.00087       -0.40625        0.11458        0.00000
 BRILLOUIN|   223           0.00087       -0.40625        0.13542        0.00000
 BRILLOUIN|   224           0.00087       -0.40625        0.15625        0.00000
 BRILLOUIN|   225           0.00087       -0.40625        0.17708        0.00000
 BRILLOUIN|   226           0.00087       -0.40625        0.19792        0.00000
 BRILLOUIN|   227           0.00087       -0.40625        0.21875        0.00000
 BRILLOUIN|   228           0.00087       -0.40625        0.23958        0.00000
 BRILLOUIN|   229           0.00087       -0.40625        0.26042        0.00000
 BRILLOUIN|   230           0.00087       -0.40625        0.28125        0.00000
 BRILLOUIN|   231           0.00087       -0.40625        0.30208        0.00000
 BRILLOUIN|   232           0.00087       -0.40625        0.32292        0.00000
 BRILLOUIN|   233           0.00087       -0.40625        0.34375        0.00000
 BRILLOUIN|   234           0.00087       -0.40625        0.36458        0.00000
 BRILLOUIN|   235           0.00087       -0.40625        0.38542        0.00000
 BRILLOUIN|   236           0.00087       -0.40625        0.40625        0.00000
 BRILLOUIN|   237           0.00087       -0.40625        0.42708        0.00000
 BRILLOUIN|   238           0.00087       -0.40625        0.44792        0.00000
 BRILLOUIN|   239           0.00087       -0.40625        0.46875        0.00000
 BRILLOUIN|   240           0.00087       -0.40625        0.48958        0.00000
 BRILLOUIN|   241           0.00087       -0.38542       -0.48958        0.00000
 BRILLOUIN|   242           0.00087       -0.38542       -0.46875        0.00000
 BRILLOUIN|   243           0.00087       -0.38542       -0.44792        0.00000
 BRILLOUIN|   244           0.00087       -0.38542       -0.42708        0.00000
 BRILLOUIN|   245           0.00087       -0.38542       -0.40625        0.00000
 BRILLOUIN|   246           0.00087       -0.38542       -0.38542        0.00000
 BRILLOUIN|   247           0.00087       -0.38542       -0.36458        0.00000
 BRILLOUIN|   248           0.00087       -0.38542       -0.34375        0.00000
 BRILLOUIN|   249           0.00087       -0.38542       -0.32292        0.00000
 BRILLOUIN|   250           0.00087       -0.38542       -0.30208        0.00000
 BRILLOUIN|   251           0.00087       -0.38542       -0.28125        0.00000
 BRILLOUIN|   252           0.00087       -0.38542       -0.26042        0.00000
 BRILLOUIN|   253           0.00087       -0.38542       -0.23958        0.00000
 BRILLOUIN|   254           0.00087       -0.38542       -0.21875        0.00000
 BRILLOUIN|   255           0.00087       -0.38542       -0.19792        0.00000
 BRILLOUIN|   256           0.00087       -0.38542       -0.17708        0.00000
 BRILLOUIN|   257           0.00087       -0.38542       -0.15625        0.00000
 BRILLOUIN|   258           0.00087       -0.38542       -0.13542        0.00000
 BRILLOUIN|   259           0.00087       -0.38542       -0.11458        0.00000
 BRILLOUIN|   260           0.00087       -0.38542       -0.09375        0.00000
 BRILLOUIN|   261           0.00087       -0.38542       -0.07292        0.00000
 BRILLOUIN|   262           0.00087       -0.38542       -0.05208        0.00000
 BRILLOUIN|   263           0.00087       -0.38542       -0.03125        0.00000
 BRILLOUIN|   264           0.00087       -0.38542       -0.01042        0.00000
 BRILLOUIN|   265           0.00087       -0.38542        0.01042        0.00000
 BRILLOUIN|   266           0.00087       -0.38542        0.03125        0.00000
 BRILLOUIN|   267           0.00087       -0.38542        0.05208        0.00000
 BRILLOUIN|   268           0.00087       -0.38542        0.07292        0.00000
 BRILLOUIN|   269           0.00087       -0.38542        0.09375        0.00000
 BRILLOUIN|   270           0.00087       -0.38542        0.11458        0.00000
 BRILLOUIN|   271           0.00087       -0.38542        0.13542        0.00000
 BRILLOUIN|   272           0.00087       -0.38542        0.15625        0.00000
 BRILLOUIN|   273           0.00087       -0.38542        0.17708        0.00000
 BRILLOUIN|   274           0.00087       -0.38542        0.19792        0.00000
 BRILLOUIN|   275           0.00087       -0.38542        0.21875        0.00000
 BRILLOUIN|   276           0.00087       -0.38542        0.23958        0.00000
 BRILLOUIN|   277           0.00087       -0.38542        0.26042        0.00000
 BRILLOUIN|   278           0.00087       -0.38542        0.28125        0.00000
 BRILLOUIN|   279           0.00087       -0.38542        0.30208        0.00000
 BRILLOUIN|   280           0.00087       -0.38542        0.32292        0.00000
 BRILLOUIN|   281           0.00087       -0.38542        0.34375        0.00000
 BRILLOUIN|   282           0.00087       -0.38542        0.36458        0.00000
 BRILLOUIN|   283           0.00087       -0.38542        0.38542        0.00000
 BRILLOUIN|   284           0.00087       -0.38542        0.40625        0.00000
 BRILLOUIN|   285           0.00087       -0.38542        0.42708        0.00000
 BRILLOUIN|   286           0.00087       -0.38542        0.44792        0.00000
 BRILLOUIN|   287           0.00087       -0.38542        0.46875        0.00000
 BRILLOUIN|   288           0.00087       -0.38542        0.48958        0.00000
 BRILLOUIN|   289           0.00087       -0.36458       -0.48958        0.00000
 BRILLOUIN|   290           0.00087       -0.36458       -0.46875        0.00000
 BRILLOUIN|   291           0.00087       -0.36458       -0.44792        0.00000
 BRILLOUIN|   292           0.00087       -0.36458       -0.42708        0.00000
 BRILLOUIN|   293           0.00087       -0.36458       -0.40625        0.00000
 BRILLOUIN|   294           0.00087       -0.36458       -0.38542        0.00000
 BRILLOUIN|   295           0.00087       -0.36458       -0.36458        0.00000
 BRILLOUIN|   296           0.00087       -0.36458       -0.34375        0.00000
 BRILLOUIN|   297           0.00087       -0.36458       -0.32292        0.00000
 BRILLOUIN|   298           0.00087       -0.36458       -0.30208        0.00000
 BRILLOUIN|   299           0.00087       -0.36458       -0.28125        0.00000
 BRILLOUIN|   300           0.00087       -0.36458       -0.26042        0.00000
 BRILLOUIN|   301           0.00087       -0.36458       -0.23958        0.00000
 BRILLOUIN|   302           0.00087       -0.36458       -0.21875        0.00000
 BRILLOUIN|   303           0.00087       -0.36458       -0.19792        0.00000
 BRILLOUIN|   304           0.00087       -0.36458       -0.17708        0.00000
 BRILLOUIN|   305           0.00087       -0.36458       -0.15625        0.00000
 BRILLOUIN|   306           0.00087       -0.36458       -0.13542        0.00000
 BRILLOUIN|   307           0.00087       -0.36458       -0.11458        0.00000
 BRILLOUIN|   308           0.00087       -0.36458       -0.09375        0.00000
 BRILLOUIN|   309           0.00087       -0.36458       -0.07292        0.00000
 BRILLOUIN|   310           0.00087       -0.36458       -0.05208        0.00000
 BRILLOUIN|   311           0.00087       -0.36458       -0.03125        0.00000
 BRILLOUIN|   312           0.00087       -0.36458       -0.01042        0.00000
 BRILLOUIN|   313           0.00087       -0.36458        0.01042        0.00000
 BRILLOUIN|   314           0.00087       -0.36458        0.03125        0.00000
 BRILLOUIN|   315           0.00087       -0.36458        0.05208        0.00000
 BRILLOUIN|   316           0.00087       -0.36458        0.07292        0.00000
 BRILLOUIN|   317           0.00087       -0.36458        0.09375        0.00000
 BRILLOUIN|   318           0.00087       -0.36458        0.11458        0.00000
 BRILLOUIN|   319           0.00087       -0.36458        0.13542        0.00000
 BRILLOUIN|   320           0.00087       -0.36458        0.15625        0.00000
 BRILLOUIN|   321           0.00087       -0.36458        0.17708        0.00000
 BRILLOUIN|   322           0.00087       -0.36458        0.19792        0.00000
 BRILLOUIN|   323           0.00087       -0.36458        0.21875        0.00000
 BRILLOUIN|   324           0.00087       -0.36458        0.23958        0.00000
 BRILLOUIN|   325           0.00087       -0.36458        0.26042        0.00000
 BRILLOUIN|   326           0.00087       -0.36458        0.28125        0.00000
 BRILLOUIN|   327           0.00087       -0.36458        0.30208        0.00000
 BRILLOUIN|   328           0.00087       -0.36458        0.32292        0.00000
 BRILLOUIN|   329           0.00087       -0.36458        0.34375        0.00000
 BRILLOUIN|   330           0.00087       -0.36458        0.36458        0.00000
 BRILLOUIN|   331           0.00087       -0.36458        0.38542        0.00000
 BRILLOUIN|   332           0.00087       -0.36458        0.40625        0.00000
 BRILLOUIN|   333           0.00087       -0.36458        0.42708        0.00000
 BRILLOUIN|   334           0.00087       -0.36458        0.44792        0.00000
 BRILLOUIN|   335           0.00087       -0.36458        0.46875        0.00000
 BRILLOUIN|   336           0.00087       -0.36458        0.48958        0.00000
 BRILLOUIN|   337           0.00087       -0.34375       -0.48958        0.00000
 BRILLOUIN|   338           0.00087       -0.34375       -0.46875        0.00000
 BRILLOUIN|   339           0.00087       -0.34375       -0.44792        0.00000
 BRILLOUIN|   340           0.00087       -0.34375       -0.42708        0.00000
 BRILLOUIN|   341           0.00087       -0.34375       -0.40625        0.00000
 BRILLOUIN|   342           0.00087       -0.34375       -0.38542        0.00000
 BRILLOUIN|   343           0.00087       -0.34375       -0.36458        0.00000
 BRILLOUIN|   344           0.00087       -0.34375       -0.34375        0.00000
 BRILLOUIN|   345           0.00087       -0.34375       -0.32292        0.00000
 BRILLOUIN|   346           0.00087       -0.34375       -0.30208        0.00000
 BRILLOUIN|   347           0.00087       -0.34375       -0.28125        0.00000
 BRILLOUIN|   348           0.00087       -0.34375       -0.26042        0.00000
 BRILLOUIN|   349           0.00087       -0.34375       -0.23958        0.00000
 BRILLOUIN|   350           0.00087       -0.34375       -0.21875        0.00000
 BRILLOUIN|   351           0.00087       -0.34375       -0.19792        0.00000
 BRILLOUIN|   352           0.00087       -0.34375       -0.17708        0.00000
 BRILLOUIN|   353           0.00087       -0.34375       -0.15625        0.00000
 BRILLOUIN|   354           0.00087       -0.34375       -0.13542        0.00000
 BRILLOUIN|   355           0.00087       -0.34375       -0.11458        0.00000
 BRILLOUIN|   356           0.00087       -0.34375       -0.09375        0.00000
 BRILLOUIN|   357           0.00087       -0.34375       -0.07292        0.00000
 BRILLOUIN|   358           0.00087       -0.34375       -0.05208        0.00000
 BRILLOUIN|   359           0.00087       -0.34375       -0.03125        0.00000
 BRILLOUIN|   360           0.00087       -0.34375       -0.01042        0.00000
 BRILLOUIN|   361           0.00087       -0.34375        0.01042        0.00000
 BRILLOUIN|   362           0.00087       -0.34375        0.03125        0.00000
 BRILLOUIN|   363           0.00087       -0.34375        0.05208        0.00000
 BRILLOUIN|   364           0.00087       -0.34375        0.07292        0.00000
 BRILLOUIN|   365           0.00087       -0.34375        0.09375        0.00000
 BRILLOUIN|   366           0.00087       -0.34375        0.11458        0.00000
 BRILLOUIN|   367           0.00087       -0.34375        0.13542        0.00000
 BRILLOUIN|   368           0.00087       -0.34375        0.15625        0.00000
 BRILLOUIN|   369           0.00087       -0.34375        0.17708        0.00000
 BRILLOUIN|   370           0.00087       -0.34375        0.19792        0.00000
 BRILLOUIN|   371           0.00087       -0.34375        0.21875        0.00000
 BRILLOUIN|   372           0.00087       -0.34375        0.23958        0.00000
 BRILLOUIN|   373           0.00087       -0.34375        0.26042        0.00000
 BRILLOUIN|   374           0.00087       -0.34375        0.28125        0.00000
 BRILLOUIN|   375           0.00087       -0.34375        0.30208        0.00000
 BRILLOUIN|   376           0.00087       -0.34375        0.32292        0.00000
 BRILLOUIN|   377           0.00087       -0.34375        0.34375        0.00000
 BRILLOUIN|   378           0.00087       -0.34375        0.36458        0.00000
 BRILLOUIN|   379           0.00087       -0.34375        0.38542        0.00000
 BRILLOUIN|   380           0.00087       -0.34375        0.40625        0.00000
 BRILLOUIN|   381           0.00087       -0.34375        0.42708        0.00000
 BRILLOUIN|   382           0.00087       -0.34375        0.44792        0.00000
 BRILLOUIN|   383           0.00087       -0.34375        0.46875        0.00000
 BRILLOUIN|   384           0.00087       -0.34375        0.48958        0.00000
 BRILLOUIN|   385           0.00087       -0.32292       -0.48958        0.00000
 BRILLOUIN|   386           0.00087       -0.32292       -0.46875        0.00000
 BRILLOUIN|   387           0.00087       -0.32292       -0.44792        0.00000
 BRILLOUIN|   388           0.00087       -0.32292       -0.42708        0.00000
 BRILLOUIN|   389           0.00087       -0.32292       -0.40625        0.00000
 BRILLOUIN|   390           0.00087       -0.32292       -0.38542        0.00000
 BRILLOUIN|   391           0.00087       -0.32292       -0.36458        0.00000
 BRILLOUIN|   392           0.00087       -0.32292       -0.34375        0.00000
 BRILLOUIN|   393           0.00087       -0.32292       -0.32292        0.00000
 BRILLOUIN|   394           0.00087       -0.32292       -0.30208        0.00000
 BRILLOUIN|   395           0.00087       -0.32292       -0.28125        0.00000
 BRILLOUIN|   396           0.00087       -0.32292       -0.26042        0.00000
 BRILLOUIN|   397           0.00087       -0.32292       -0.23958        0.00000
 BRILLOUIN|   398           0.00087       -0.32292       -0.21875        0.00000
 BRILLOUIN|   399           0.00087       -0.32292       -0.19792        0.00000
 BRILLOUIN|   400           0.00087       -0.32292       -0.17708        0.00000
 BRILLOUIN|   401           0.00087       -0.32292       -0.15625        0.00000
 BRILLOUIN|   402           0.00087       -0.32292       -0.13542        0.00000
 BRILLOUIN|   403           0.00087       -0.32292       -0.11458        0.00000
 BRILLOUIN|   404           0.00087       -0.32292       -0.09375        0.00000
 BRILLOUIN|   405           0.00087       -0.32292       -0.07292        0.00000
 BRILLOUIN|   406           0.00087       -0.32292       -0.05208        0.00000
 BRILLOUIN|   407           0.00087       -0.32292       -0.03125        0.00000
 BRILLOUIN|   408           0.00087       -0.32292       -0.01042        0.00000
 BRILLOUIN|   409           0.00087       -0.32292        0.01042        0.00000
 BRILLOUIN|   410           0.00087       -0.32292        0.03125        0.00000
 BRILLOUIN|   411           0.00087       -0.32292        0.05208        0.00000
 BRILLOUIN|   412           0.00087       -0.32292        0.07292        0.00000
 BRILLOUIN|   413           0.00087       -0.32292        0.09375        0.00000
 BRILLOUIN|   414           0.00087       -0.32292        0.11458        0.00000
 BRILLOUIN|   415           0.00087       -0.32292        0.13542        0.00000
 BRILLOUIN|   416           0.00087       -0.32292        0.15625        0.00000
 BRILLOUIN|   417           0.00087       -0.32292        0.17708        0.00000
 BRILLOUIN|   418           0.00087       -0.32292        0.19792        0.00000
 BRILLOUIN|   419           0.00087       -0.32292        0.21875        0.00000
 BRILLOUIN|   420           0.00087       -0.32292        0.23958        0.00000
 BRILLOUIN|   421           0.00087       -0.32292        0.26042        0.00000
 BRILLOUIN|   422           0.00087       -0.32292        0.28125        0.00000
 BRILLOUIN|   423           0.00087       -0.32292        0.30208        0.00000
 BRILLOUIN|   424           0.00087       -0.32292        0.32292        0.00000
 BRILLOUIN|   425           0.00087       -0.32292        0.34375        0.00000
 BRILLOUIN|   426           0.00087       -0.32292        0.36458        0.00000
 BRILLOUIN|   427           0.00087       -0.32292        0.38542        0.00000
 BRILLOUIN|   428           0.00087       -0.32292        0.40625        0.00000
 BRILLOUIN|   429           0.00087       -0.32292        0.42708        0.00000
 BRILLOUIN|   430           0.00087       -0.32292        0.44792        0.00000
 BRILLOUIN|   431           0.00087       -0.32292        0.46875        0.00000
 BRILLOUIN|   432           0.00087       -0.32292        0.48958        0.00000
 BRILLOUIN|   433           0.00087       -0.30208       -0.48958        0.00000
 BRILLOUIN|   434           0.00087       -0.30208       -0.46875        0.00000
 BRILLOUIN|   435           0.00087       -0.30208       -0.44792        0.00000
 BRILLOUIN|   436           0.00087       -0.30208       -0.42708        0.00000
 BRILLOUIN|   437           0.00087       -0.30208       -0.40625        0.00000
 BRILLOUIN|   438           0.00087       -0.30208       -0.38542        0.00000
 BRILLOUIN|   439           0.00087       -0.30208       -0.36458        0.00000
 BRILLOUIN|   440           0.00087       -0.30208       -0.34375        0.00000
 BRILLOUIN|   441           0.00087       -0.30208       -0.32292        0.00000
 BRILLOUIN|   442           0.00087       -0.30208       -0.30208        0.00000
 BRILLOUIN|   443           0.00087       -0.30208       -0.28125        0.00000
 BRILLOUIN|   444           0.00087       -0.30208       -0.26042        0.00000
 BRILLOUIN|   445           0.00087       -0.30208       -0.23958        0.00000
 BRILLOUIN|   446           0.00087       -0.30208       -0.21875        0.00000
 BRILLOUIN|   447           0.00087       -0.30208       -0.19792        0.00000
 BRILLOUIN|   448           0.00087       -0.30208       -0.17708        0.00000
 BRILLOUIN|   449           0.00087       -0.30208       -0.15625        0.00000
 BRILLOUIN|   450           0.00087       -0.30208       -0.13542        0.00000
 BRILLOUIN|   451           0.00087       -0.30208       -0.11458        0.00000
 BRILLOUIN|   452           0.00087       -0.30208       -0.09375        0.00000
 BRILLOUIN|   453           0.00087       -0.30208       -0.07292        0.00000
 BRILLOUIN|   454           0.00087       -0.30208       -0.05208        0.00000
 BRILLOUIN|   455           0.00087       -0.30208       -0.03125        0.00000
 BRILLOUIN|   456           0.00087       -0.30208       -0.01042        0.00000
 BRILLOUIN|   457           0.00087       -0.30208        0.01042        0.00000
 BRILLOUIN|   458           0.00087       -0.30208        0.03125        0.00000
 BRILLOUIN|   459           0.00087       -0.30208        0.05208        0.00000
 BRILLOUIN|   460           0.00087       -0.30208        0.07292        0.00000
 BRILLOUIN|   461           0.00087       -0.30208        0.09375        0.00000
 BRILLOUIN|   462           0.00087       -0.30208        0.11458        0.00000
 BRILLOUIN|   463           0.00087       -0.30208        0.13542        0.00000
 BRILLOUIN|   464           0.00087       -0.30208        0.15625        0.00000
 BRILLOUIN|   465           0.00087       -0.30208        0.17708        0.00000
 BRILLOUIN|   466           0.00087       -0.30208        0.19792        0.00000
 BRILLOUIN|   467           0.00087       -0.30208        0.21875        0.00000
 BRILLOUIN|   468           0.00087       -0.30208        0.23958        0.00000
 BRILLOUIN|   469           0.00087       -0.30208        0.26042        0.00000
 BRILLOUIN|   470           0.00087       -0.30208        0.28125        0.00000
 BRILLOUIN|   471           0.00087       -0.30208        0.30208        0.00000
 BRILLOUIN|   472           0.00087       -0.30208        0.32292        0.00000
 BRILLOUIN|   473           0.00087       -0.30208        0.34375        0.00000
 BRILLOUIN|   474           0.00087       -0.30208        0.36458        0.00000
 BRILLOUIN|   475           0.00087       -0.30208        0.38542        0.00000
 BRILLOUIN|   476           0.00087       -0.30208        0.40625        0.00000
 BRILLOUIN|   477           0.00087       -0.30208        0.42708        0.00000
 BRILLOUIN|   478           0.00087       -0.30208        0.44792        0.00000
 BRILLOUIN|   479           0.00087       -0.30208        0.46875        0.00000
 BRILLOUIN|   480           0.00087       -0.30208        0.48958        0.00000
 BRILLOUIN|   481           0.00087       -0.28125       -0.48958        0.00000
 BRILLOUIN|   482           0.00087       -0.28125       -0.46875        0.00000
 BRILLOUIN|   483           0.00087       -0.28125       -0.44792        0.00000
 BRILLOUIN|   484           0.00087       -0.28125       -0.42708        0.00000
 BRILLOUIN|   485           0.00087       -0.28125       -0.40625        0.00000
 BRILLOUIN|   486           0.00087       -0.28125       -0.38542        0.00000
 BRILLOUIN|   487           0.00087       -0.28125       -0.36458        0.00000
 BRILLOUIN|   488           0.00087       -0.28125       -0.34375        0.00000
 BRILLOUIN|   489           0.00087       -0.28125       -0.32292        0.00000
 BRILLOUIN|   490           0.00087       -0.28125       -0.30208        0.00000
 BRILLOUIN|   491           0.00087       -0.28125       -0.28125        0.00000
 BRILLOUIN|   492           0.00087       -0.28125       -0.26042        0.00000
 BRILLOUIN|   493           0.00087       -0.28125       -0.23958        0.00000
 BRILLOUIN|   494           0.00087       -0.28125       -0.21875        0.00000
 BRILLOUIN|   495           0.00087       -0.28125       -0.19792        0.00000
 BRILLOUIN|   496           0.00087       -0.28125       -0.17708        0.00000
 BRILLOUIN|   497           0.00087       -0.28125       -0.15625        0.00000
 BRILLOUIN|   498           0.00087       -0.28125       -0.13542        0.00000
 BRILLOUIN|   499           0.00087       -0.28125       -0.11458        0.00000
 BRILLOUIN|   500           0.00087       -0.28125       -0.09375        0.00000
 BRILLOUIN|   501           0.00087       -0.28125       -0.07292        0.00000
 BRILLOUIN|   502           0.00087       -0.28125       -0.05208        0.00000
 BRILLOUIN|   503           0.00087       -0.28125       -0.03125        0.00000
 BRILLOUIN|   504           0.00087       -0.28125       -0.01042        0.00000
 BRILLOUIN|   505           0.00087       -0.28125        0.01042        0.00000
 BRILLOUIN|   506           0.00087       -0.28125        0.03125        0.00000
 BRILLOUIN|   507           0.00087       -0.28125        0.05208        0.00000
 BRILLOUIN|   508           0.00087       -0.28125        0.07292        0.00000
 BRILLOUIN|   509           0.00087       -0.28125        0.09375        0.00000
 BRILLOUIN|   510           0.00087       -0.28125        0.11458        0.00000
 BRILLOUIN|   511           0.00087       -0.28125        0.13542        0.00000
 BRILLOUIN|   512           0.00087       -0.28125        0.15625        0.00000
 BRILLOUIN|   513           0.00087       -0.28125        0.17708        0.00000
 BRILLOUIN|   514           0.00087       -0.28125        0.19792        0.00000
 BRILLOUIN|   515           0.00087       -0.28125        0.21875        0.00000
 BRILLOUIN|   516           0.00087       -0.28125        0.23958        0.00000
 BRILLOUIN|   517           0.00087       -0.28125        0.26042        0.00000
 BRILLOUIN|   518           0.00087       -0.28125        0.28125        0.00000
 BRILLOUIN|   519           0.00087       -0.28125        0.30208        0.00000
 BRILLOUIN|   520           0.00087       -0.28125        0.32292        0.00000
 BRILLOUIN|   521           0.00087       -0.28125        0.34375        0.00000
 BRILLOUIN|   522           0.00087       -0.28125        0.36458        0.00000
 BRILLOUIN|   523           0.00087       -0.28125        0.38542        0.00000
 BRILLOUIN|   524           0.00087       -0.28125        0.40625        0.00000
 BRILLOUIN|   525           0.00087       -0.28125        0.42708        0.00000
 BRILLOUIN|   526           0.00087       -0.28125        0.44792        0.00000
 BRILLOUIN|   527           0.00087       -0.28125        0.46875        0.00000
 BRILLOUIN|   528           0.00087       -0.28125        0.48958        0.00000
 BRILLOUIN|   529           0.00087       -0.26042       -0.48958        0.00000
 BRILLOUIN|   530           0.00087       -0.26042       -0.46875        0.00000
 BRILLOUIN|   531           0.00087       -0.26042       -0.44792        0.00000
 BRILLOUIN|   532           0.00087       -0.26042       -0.42708        0.00000
 BRILLOUIN|   533           0.00087       -0.26042       -0.40625        0.00000
 BRILLOUIN|   534           0.00087       -0.26042       -0.38542        0.00000
 BRILLOUIN|   535           0.00087       -0.26042       -0.36458        0.00000
 BRILLOUIN|   536           0.00087       -0.26042       -0.34375        0.00000
 BRILLOUIN|   537           0.00087       -0.26042       -0.32292        0.00000
 BRILLOUIN|   538           0.00087       -0.26042       -0.30208        0.00000
 BRILLOUIN|   539           0.00087       -0.26042       -0.28125        0.00000
 BRILLOUIN|   540           0.00087       -0.26042       -0.26042        0.00000
 BRILLOUIN|   541           0.00087       -0.26042       -0.23958        0.00000
 BRILLOUIN|   542           0.00087       -0.26042       -0.21875        0.00000
 BRILLOUIN|   543           0.00087       -0.26042       -0.19792        0.00000
 BRILLOUIN|   544           0.00087       -0.26042       -0.17708        0.00000
 BRILLOUIN|   545           0.00087       -0.26042       -0.15625        0.00000
 BRILLOUIN|   546           0.00087       -0.26042       -0.13542        0.00000
 BRILLOUIN|   547           0.00087       -0.26042       -0.11458        0.00000
 BRILLOUIN|   548           0.00087       -0.26042       -0.09375        0.00000
 BRILLOUIN|   549           0.00087       -0.26042       -0.07292        0.00000
 BRILLOUIN|   550           0.00087       -0.26042       -0.05208        0.00000
 BRILLOUIN|   551           0.00087       -0.26042       -0.03125        0.00000
 BRILLOUIN|   552           0.00087       -0.26042       -0.01042        0.00000
 BRILLOUIN|   553           0.00087       -0.26042        0.01042        0.00000
 BRILLOUIN|   554           0.00087       -0.26042        0.03125        0.00000
 BRILLOUIN|   555           0.00087       -0.26042        0.05208        0.00000
 BRILLOUIN|   556           0.00087       -0.26042        0.07292        0.00000
 BRILLOUIN|   557           0.00087       -0.26042        0.09375        0.00000
 BRILLOUIN|   558           0.00087       -0.26042        0.11458        0.00000
 BRILLOUIN|   559           0.00087       -0.26042        0.13542        0.00000
 BRILLOUIN|   560           0.00087       -0.26042        0.15625        0.00000
 BRILLOUIN|   561           0.00087       -0.26042        0.17708        0.00000
 BRILLOUIN|   562           0.00087       -0.26042        0.19792        0.00000
 BRILLOUIN|   563           0.00087       -0.26042        0.21875        0.00000
 BRILLOUIN|   564           0.00087       -0.26042        0.23958        0.00000
 BRILLOUIN|   565           0.00087       -0.26042        0.26042        0.00000
 BRILLOUIN|   566           0.00087       -0.26042        0.28125        0.00000
 BRILLOUIN|   567           0.00087       -0.26042        0.30208        0.00000
 BRILLOUIN|   568           0.00087       -0.26042        0.32292        0.00000
 BRILLOUIN|   569           0.00087       -0.26042        0.34375        0.00000
 BRILLOUIN|   570           0.00087       -0.26042        0.36458        0.00000
 BRILLOUIN|   571           0.00087       -0.26042        0.38542        0.00000
 BRILLOUIN|   572           0.00087       -0.26042        0.40625        0.00000
 BRILLOUIN|   573           0.00087       -0.26042        0.42708        0.00000
 BRILLOUIN|   574           0.00087       -0.26042        0.44792        0.00000
 BRILLOUIN|   575           0.00087       -0.26042        0.46875        0.00000
 BRILLOUIN|   576           0.00087       -0.26042        0.48958        0.00000
 BRILLOUIN|   577           0.00087       -0.23958       -0.48958        0.00000
 BRILLOUIN|   578           0.00087       -0.23958       -0.46875        0.00000
 BRILLOUIN|   579           0.00087       -0.23958       -0.44792        0.00000
 BRILLOUIN|   580           0.00087       -0.23958       -0.42708        0.00000
 BRILLOUIN|   581           0.00087       -0.23958       -0.40625        0.00000
 BRILLOUIN|   582           0.00087       -0.23958       -0.38542        0.00000
 BRILLOUIN|   583           0.00087       -0.23958       -0.36458        0.00000
 BRILLOUIN|   584           0.00087       -0.23958       -0.34375        0.00000
 BRILLOUIN|   585           0.00087       -0.23958       -0.32292        0.00000
 BRILLOUIN|   586           0.00087       -0.23958       -0.30208        0.00000
 BRILLOUIN|   587           0.00087       -0.23958       -0.28125        0.00000
 BRILLOUIN|   588           0.00087       -0.23958       -0.26042        0.00000
 BRILLOUIN|   589           0.00087       -0.23958       -0.23958        0.00000
 BRILLOUIN|   590           0.00087       -0.23958       -0.21875        0.00000
 BRILLOUIN|   591           0.00087       -0.23958       -0.19792        0.00000
 BRILLOUIN|   592           0.00087       -0.23958       -0.17708        0.00000
 BRILLOUIN|   593           0.00087       -0.23958       -0.15625        0.00000
 BRILLOUIN|   594           0.00087       -0.23958       -0.13542        0.00000
 BRILLOUIN|   595           0.00087       -0.23958       -0.11458        0.00000
 BRILLOUIN|   596           0.00087       -0.23958       -0.09375        0.00000
 BRILLOUIN|   597           0.00087       -0.23958       -0.07292        0.00000
 BRILLOUIN|   598           0.00087       -0.23958       -0.05208        0.00000
 BRILLOUIN|   599           0.00087       -0.23958       -0.03125        0.00000
 BRILLOUIN|   600           0.00087       -0.23958       -0.01042        0.00000
 BRILLOUIN|   601           0.00087       -0.23958        0.01042        0.00000
 BRILLOUIN|   602           0.00087       -0.23958        0.03125        0.00000
 BRILLOUIN|   603           0.00087       -0.23958        0.05208        0.00000
 BRILLOUIN|   604           0.00087       -0.23958        0.07292        0.00000
 BRILLOUIN|   605           0.00087       -0.23958        0.09375        0.00000
 BRILLOUIN|   606           0.00087       -0.23958        0.11458        0.00000
 BRILLOUIN|   607           0.00087       -0.23958        0.13542        0.00000
 BRILLOUIN|   608           0.00087       -0.23958        0.15625        0.00000
 BRILLOUIN|   609           0.00087       -0.23958        0.17708        0.00000
 BRILLOUIN|   610           0.00087       -0.23958        0.19792        0.00000
 BRILLOUIN|   611           0.00087       -0.23958        0.21875        0.00000
 BRILLOUIN|   612           0.00087       -0.23958        0.23958        0.00000
 BRILLOUIN|   613           0.00087       -0.23958        0.26042        0.00000
 BRILLOUIN|   614           0.00087       -0.23958        0.28125        0.00000
 BRILLOUIN|   615           0.00087       -0.23958        0.30208        0.00000
 BRILLOUIN|   616           0.00087       -0.23958        0.32292        0.00000
 BRILLOUIN|   617           0.00087       -0.23958        0.34375        0.00000
 BRILLOUIN|   618           0.00087       -0.23958        0.36458        0.00000
 BRILLOUIN|   619           0.00087       -0.23958        0.38542        0.00000
 BRILLOUIN|   620           0.00087       -0.23958        0.40625        0.00000
 BRILLOUIN|   621           0.00087       -0.23958        0.42708        0.00000
 BRILLOUIN|   622           0.00087       -0.23958        0.44792        0.00000
 BRILLOUIN|   623           0.00087       -0.23958        0.46875        0.00000
 BRILLOUIN|   624           0.00087       -0.23958        0.48958        0.00000
 BRILLOUIN|   625           0.00087       -0.21875       -0.48958        0.00000
 BRILLOUIN|   626           0.00087       -0.21875       -0.46875        0.00000
 BRILLOUIN|   627           0.00087       -0.21875       -0.44792        0.00000
 BRILLOUIN|   628           0.00087       -0.21875       -0.42708        0.00000
 BRILLOUIN|   629           0.00087       -0.21875       -0.40625        0.00000
 BRILLOUIN|   630           0.00087       -0.21875       -0.38542        0.00000
 BRILLOUIN|   631           0.00087       -0.21875       -0.36458        0.00000
 BRILLOUIN|   632           0.00087       -0.21875       -0.34375        0.00000
 BRILLOUIN|   633           0.00087       -0.21875       -0.32292        0.00000
 BRILLOUIN|   634           0.00087       -0.21875       -0.30208        0.00000
 BRILLOUIN|   635           0.00087       -0.21875       -0.28125        0.00000
 BRILLOUIN|   636           0.00087       -0.21875       -0.26042        0.00000
 BRILLOUIN|   637           0.00087       -0.21875       -0.23958        0.00000
 BRILLOUIN|   638           0.00087       -0.21875       -0.21875        0.00000
 BRILLOUIN|   639           0.00087       -0.21875       -0.19792        0.00000
 BRILLOUIN|   640           0.00087       -0.21875       -0.17708        0.00000
 BRILLOUIN|   641           0.00087       -0.21875       -0.15625        0.00000
 BRILLOUIN|   642           0.00087       -0.21875       -0.13542        0.00000
 BRILLOUIN|   643           0.00087       -0.21875       -0.11458        0.00000
 BRILLOUIN|   644           0.00087       -0.21875       -0.09375        0.00000
 BRILLOUIN|   645           0.00087       -0.21875       -0.07292        0.00000
 BRILLOUIN|   646           0.00087       -0.21875       -0.05208        0.00000
 BRILLOUIN|   647           0.00087       -0.21875       -0.03125        0.00000
 BRILLOUIN|   648           0.00087       -0.21875       -0.01042        0.00000
 BRILLOUIN|   649           0.00087       -0.21875        0.01042        0.00000
 BRILLOUIN|   650           0.00087       -0.21875        0.03125        0.00000
 BRILLOUIN|   651           0.00087       -0.21875        0.05208        0.00000
 BRILLOUIN|   652           0.00087       -0.21875        0.07292        0.00000
 BRILLOUIN|   653           0.00087       -0.21875        0.09375        0.00000
 BRILLOUIN|   654           0.00087       -0.21875        0.11458        0.00000
 BRILLOUIN|   655           0.00087       -0.21875        0.13542        0.00000
 BRILLOUIN|   656           0.00087       -0.21875        0.15625        0.00000
 BRILLOUIN|   657           0.00087       -0.21875        0.17708        0.00000
 BRILLOUIN|   658           0.00087       -0.21875        0.19792        0.00000
 BRILLOUIN|   659           0.00087       -0.21875        0.21875        0.00000
 BRILLOUIN|   660           0.00087       -0.21875        0.23958        0.00000
 BRILLOUIN|   661           0.00087       -0.21875        0.26042        0.00000
 BRILLOUIN|   662           0.00087       -0.21875        0.28125        0.00000
 BRILLOUIN|   663           0.00087       -0.21875        0.30208        0.00000
 BRILLOUIN|   664           0.00087       -0.21875        0.32292        0.00000
 BRILLOUIN|   665           0.00087       -0.21875        0.34375        0.00000
 BRILLOUIN|   666           0.00087       -0.21875        0.36458        0.00000
 BRILLOUIN|   667           0.00087       -0.21875        0.38542        0.00000
 BRILLOUIN|   668           0.00087       -0.21875        0.40625        0.00000
 BRILLOUIN|   669           0.00087       -0.21875        0.42708        0.00000
 BRILLOUIN|   670           0.00087       -0.21875        0.44792        0.00000
 BRILLOUIN|   671           0.00087       -0.21875        0.46875        0.00000
 BRILLOUIN|   672           0.00087       -0.21875        0.48958        0.00000
 BRILLOUIN|   673           0.00087       -0.19792       -0.48958        0.00000
 BRILLOUIN|   674           0.00087       -0.19792       -0.46875        0.00000
 BRILLOUIN|   675           0.00087       -0.19792       -0.44792        0.00000
 BRILLOUIN|   676           0.00087       -0.19792       -0.42708        0.00000
 BRILLOUIN|   677           0.00087       -0.19792       -0.40625        0.00000
 BRILLOUIN|   678           0.00087       -0.19792       -0.38542        0.00000
 BRILLOUIN|   679           0.00087       -0.19792       -0.36458        0.00000
 BRILLOUIN|   680           0.00087       -0.19792       -0.34375        0.00000
 BRILLOUIN|   681           0.00087       -0.19792       -0.32292        0.00000
 BRILLOUIN|   682           0.00087       -0.19792       -0.30208        0.00000
 BRILLOUIN|   683           0.00087       -0.19792       -0.28125        0.00000
 BRILLOUIN|   684           0.00087       -0.19792       -0.26042        0.00000
 BRILLOUIN|   685           0.00087       -0.19792       -0.23958        0.00000
 BRILLOUIN|   686           0.00087       -0.19792       -0.21875        0.00000
 BRILLOUIN|   687           0.00087       -0.19792       -0.19792        0.00000
 BRILLOUIN|   688           0.00087       -0.19792       -0.17708        0.00000
 BRILLOUIN|   689           0.00087       -0.19792       -0.15625        0.00000
 BRILLOUIN|   690           0.00087       -0.19792       -0.13542        0.00000
 BRILLOUIN|   691           0.00087       -0.19792       -0.11458        0.00000
 BRILLOUIN|   692           0.00087       -0.19792       -0.09375        0.00000
 BRILLOUIN|   693           0.00087       -0.19792       -0.07292        0.00000
 BRILLOUIN|   694           0.00087       -0.19792       -0.05208        0.00000
 BRILLOUIN|   695           0.00087       -0.19792       -0.03125        0.00000
 BRILLOUIN|   696           0.00087       -0.19792       -0.01042        0.00000
 BRILLOUIN|   697           0.00087       -0.19792        0.01042        0.00000
 BRILLOUIN|   698           0.00087       -0.19792        0.03125        0.00000
 BRILLOUIN|   699           0.00087       -0.19792        0.05208        0.00000
 BRILLOUIN|   700           0.00087       -0.19792        0.07292        0.00000
 BRILLOUIN|   701           0.00087       -0.19792        0.09375        0.00000
 BRILLOUIN|   702           0.00087       -0.19792        0.11458        0.00000
 BRILLOUIN|   703           0.00087       -0.19792        0.13542        0.00000
 BRILLOUIN|   704           0.00087       -0.19792        0.15625        0.00000
 BRILLOUIN|   705           0.00087       -0.19792        0.17708        0.00000
 BRILLOUIN|   706           0.00087       -0.19792        0.19792        0.00000
 BRILLOUIN|   707           0.00087       -0.19792        0.21875        0.00000
 BRILLOUIN|   708           0.00087       -0.19792        0.23958        0.00000
 BRILLOUIN|   709           0.00087       -0.19792        0.26042        0.00000
 BRILLOUIN|   710           0.00087       -0.19792        0.28125        0.00000
 BRILLOUIN|   711           0.00087       -0.19792        0.30208        0.00000
 BRILLOUIN|   712           0.00087       -0.19792        0.32292        0.00000
 BRILLOUIN|   713           0.00087       -0.19792        0.34375        0.00000
 BRILLOUIN|   714           0.00087       -0.19792        0.36458        0.00000
 BRILLOUIN|   715           0.00087       -0.19792        0.38542        0.00000
 BRILLOUIN|   716           0.00087       -0.19792        0.40625        0.00000
 BRILLOUIN|   717           0.00087       -0.19792        0.42708        0.00000
 BRILLOUIN|   718           0.00087       -0.19792        0.44792        0.00000
 BRILLOUIN|   719           0.00087       -0.19792        0.46875        0.00000
 BRILLOUIN|   720           0.00087       -0.19792        0.48958        0.00000
 BRILLOUIN|   721           0.00087       -0.17708       -0.48958        0.00000
 BRILLOUIN|   722           0.00087       -0.17708       -0.46875        0.00000
 BRILLOUIN|   723           0.00087       -0.17708       -0.44792        0.00000
 BRILLOUIN|   724           0.00087       -0.17708       -0.42708        0.00000
 BRILLOUIN|   725           0.00087       -0.17708       -0.40625        0.00000
 BRILLOUIN|   726           0.00087       -0.17708       -0.38542        0.00000
 BRILLOUIN|   727           0.00087       -0.17708       -0.36458        0.00000
 BRILLOUIN|   728           0.00087       -0.17708       -0.34375        0.00000
 BRILLOUIN|   729           0.00087       -0.17708       -0.32292        0.00000
 BRILLOUIN|   730           0.00087       -0.17708       -0.30208        0.00000
 BRILLOUIN|   731           0.00087       -0.17708       -0.28125        0.00000
 BRILLOUIN|   732           0.00087       -0.17708       -0.26042        0.00000
 BRILLOUIN|   733           0.00087       -0.17708       -0.23958        0.00000
 BRILLOUIN|   734           0.00087       -0.17708       -0.21875        0.00000
 BRILLOUIN|   735           0.00087       -0.17708       -0.19792        0.00000
 BRILLOUIN|   736           0.00087       -0.17708       -0.17708        0.00000
 BRILLOUIN|   737           0.00087       -0.17708       -0.15625        0.00000
 BRILLOUIN|   738           0.00087       -0.17708       -0.13542        0.00000
 BRILLOUIN|   739           0.00087       -0.17708       -0.11458        0.00000
 BRILLOUIN|   740           0.00087       -0.17708       -0.09375        0.00000
 BRILLOUIN|   741           0.00087       -0.17708       -0.07292        0.00000
 BRILLOUIN|   742           0.00087       -0.17708       -0.05208        0.00000
 BRILLOUIN|   743           0.00087       -0.17708       -0.03125        0.00000
 BRILLOUIN|   744           0.00087       -0.17708       -0.01042        0.00000
 BRILLOUIN|   745           0.00087       -0.17708        0.01042        0.00000
 BRILLOUIN|   746           0.00087       -0.17708        0.03125        0.00000
 BRILLOUIN|   747           0.00087       -0.17708        0.05208        0.00000
 BRILLOUIN|   748           0.00087       -0.17708        0.07292        0.00000
 BRILLOUIN|   749           0.00087       -0.17708        0.09375        0.00000
 BRILLOUIN|   750           0.00087       -0.17708        0.11458        0.00000
 BRILLOUIN|   751           0.00087       -0.17708        0.13542        0.00000
 BRILLOUIN|   752           0.00087       -0.17708        0.15625        0.00000
 BRILLOUIN|   753           0.00087       -0.17708        0.17708        0.00000
 BRILLOUIN|   754           0.00087       -0.17708        0.19792        0.00000
 BRILLOUIN|   755           0.00087       -0.17708        0.21875        0.00000
 BRILLOUIN|   756           0.00087       -0.17708        0.23958        0.00000
 BRILLOUIN|   757           0.00087       -0.17708        0.26042        0.00000
 BRILLOUIN|   758           0.00087       -0.17708        0.28125        0.00000
 BRILLOUIN|   759           0.00087       -0.17708        0.30208        0.00000
 BRILLOUIN|   760           0.00087       -0.17708        0.32292        0.00000
 BRILLOUIN|   761           0.00087       -0.17708        0.34375        0.00000
 BRILLOUIN|   762           0.00087       -0.17708        0.36458        0.00000
 BRILLOUIN|   763           0.00087       -0.17708        0.38542        0.00000
 BRILLOUIN|   764           0.00087       -0.17708        0.40625        0.00000
 BRILLOUIN|   765           0.00087       -0.17708        0.42708        0.00000
 BRILLOUIN|   766           0.00087       -0.17708        0.44792        0.00000
 BRILLOUIN|   767           0.00087       -0.17708        0.46875        0.00000
 BRILLOUIN|   768           0.00087       -0.17708        0.48958        0.00000
 BRILLOUIN|   769           0.00087       -0.15625       -0.48958        0.00000
 BRILLOUIN|   770           0.00087       -0.15625       -0.46875        0.00000
 BRILLOUIN|   771           0.00087       -0.15625       -0.44792        0.00000
 BRILLOUIN|   772           0.00087       -0.15625       -0.42708        0.00000
 BRILLOUIN|   773           0.00087       -0.15625       -0.40625        0.00000
 BRILLOUIN|   774           0.00087       -0.15625       -0.38542        0.00000
 BRILLOUIN|   775           0.00087       -0.15625       -0.36458        0.00000
 BRILLOUIN|   776           0.00087       -0.15625       -0.34375        0.00000
 BRILLOUIN|   777           0.00087       -0.15625       -0.32292        0.00000
 BRILLOUIN|   778           0.00087       -0.15625       -0.30208        0.00000
 BRILLOUIN|   779           0.00087       -0.15625       -0.28125        0.00000
 BRILLOUIN|   780           0.00087       -0.15625       -0.26042        0.00000
 BRILLOUIN|   781           0.00087       -0.15625       -0.23958        0.00000
 BRILLOUIN|   782           0.00087       -0.15625       -0.21875        0.00000
 BRILLOUIN|   783           0.00087       -0.15625       -0.19792        0.00000
 BRILLOUIN|   784           0.00087       -0.15625       -0.17708        0.00000
 BRILLOUIN|   785           0.00087       -0.15625       -0.15625        0.00000
 BRILLOUIN|   786           0.00087       -0.15625       -0.13542        0.00000
 BRILLOUIN|   787           0.00087       -0.15625       -0.11458        0.00000
 BRILLOUIN|   788           0.00087       -0.15625       -0.09375        0.00000
 BRILLOUIN|   789           0.00087       -0.15625       -0.07292        0.00000
 BRILLOUIN|   790           0.00087       -0.15625       -0.05208        0.00000
 BRILLOUIN|   791           0.00087       -0.15625       -0.03125        0.00000
 BRILLOUIN|   792           0.00087       -0.15625       -0.01042        0.00000
 BRILLOUIN|   793           0.00087       -0.15625        0.01042        0.00000
 BRILLOUIN|   794           0.00087       -0.15625        0.03125        0.00000
 BRILLOUIN|   795           0.00087       -0.15625        0.05208        0.00000
 BRILLOUIN|   796           0.00087       -0.15625        0.07292        0.00000
 BRILLOUIN|   797           0.00087       -0.15625        0.09375        0.00000
 BRILLOUIN|   798           0.00087       -0.15625        0.11458        0.00000
 BRILLOUIN|   799           0.00087       -0.15625        0.13542        0.00000
 BRILLOUIN|   800           0.00087       -0.15625        0.15625        0.00000
 BRILLOUIN|   801           0.00087       -0.15625        0.17708        0.00000
 BRILLOUIN|   802           0.00087       -0.15625        0.19792        0.00000
 BRILLOUIN|   803           0.00087       -0.15625        0.21875        0.00000
 BRILLOUIN|   804           0.00087       -0.15625        0.23958        0.00000
 BRILLOUIN|   805           0.00087       -0.15625        0.26042        0.00000
 BRILLOUIN|   806           0.00087       -0.15625        0.28125        0.00000
 BRILLOUIN|   807           0.00087       -0.15625        0.30208        0.00000
 BRILLOUIN|   808           0.00087       -0.15625        0.32292        0.00000
 BRILLOUIN|   809           0.00087       -0.15625        0.34375        0.00000
 BRILLOUIN|   810           0.00087       -0.15625        0.36458        0.00000
 BRILLOUIN|   811           0.00087       -0.15625        0.38542        0.00000
 BRILLOUIN|   812           0.00087       -0.15625        0.40625        0.00000
 BRILLOUIN|   813           0.00087       -0.15625        0.42708        0.00000
 BRILLOUIN|   814           0.00087       -0.15625        0.44792        0.00000
 BRILLOUIN|   815           0.00087       -0.15625        0.46875        0.00000
 BRILLOUIN|   816           0.00087       -0.15625        0.48958        0.00000
 BRILLOUIN|   817           0.00087       -0.13542       -0.48958        0.00000
 BRILLOUIN|   818           0.00087       -0.13542       -0.46875        0.00000
 BRILLOUIN|   819           0.00087       -0.13542       -0.44792        0.00000
 BRILLOUIN|   820           0.00087       -0.13542       -0.42708        0.00000
 BRILLOUIN|   821           0.00087       -0.13542       -0.40625        0.00000
 BRILLOUIN|   822           0.00087       -0.13542       -0.38542        0.00000
 BRILLOUIN|   823           0.00087       -0.13542       -0.36458        0.00000
 BRILLOUIN|   824           0.00087       -0.13542       -0.34375        0.00000
 BRILLOUIN|   825           0.00087       -0.13542       -0.32292        0.00000
 BRILLOUIN|   826           0.00087       -0.13542       -0.30208        0.00000
 BRILLOUIN|   827           0.00087       -0.13542       -0.28125        0.00000
 BRILLOUIN|   828           0.00087       -0.13542       -0.26042        0.00000
 BRILLOUIN|   829           0.00087       -0.13542       -0.23958        0.00000
 BRILLOUIN|   830           0.00087       -0.13542       -0.21875        0.00000
 BRILLOUIN|   831           0.00087       -0.13542       -0.19792        0.00000
 BRILLOUIN|   832           0.00087       -0.13542       -0.17708        0.00000
 BRILLOUIN|   833           0.00087       -0.13542       -0.15625        0.00000
 BRILLOUIN|   834           0.00087       -0.13542       -0.13542        0.00000
 BRILLOUIN|   835           0.00087       -0.13542       -0.11458        0.00000
 BRILLOUIN|   836           0.00087       -0.13542       -0.09375        0.00000
 BRILLOUIN|   837           0.00087       -0.13542       -0.07292        0.00000
 BRILLOUIN|   838           0.00087       -0.13542       -0.05208        0.00000
 BRILLOUIN|   839           0.00087       -0.13542       -0.03125        0.00000
 BRILLOUIN|   840           0.00087       -0.13542       -0.01042        0.00000
 BRILLOUIN|   841           0.00087       -0.13542        0.01042        0.00000
 BRILLOUIN|   842           0.00087       -0.13542        0.03125        0.00000
 BRILLOUIN|   843           0.00087       -0.13542        0.05208        0.00000
 BRILLOUIN|   844           0.00087       -0.13542        0.07292        0.00000
 BRILLOUIN|   845           0.00087       -0.13542        0.09375        0.00000
 BRILLOUIN|   846           0.00087       -0.13542        0.11458        0.00000
 BRILLOUIN|   847           0.00087       -0.13542        0.13542        0.00000
 BRILLOUIN|   848           0.00087       -0.13542        0.15625        0.00000
 BRILLOUIN|   849           0.00087       -0.13542        0.17708        0.00000
 BRILLOUIN|   850           0.00087       -0.13542        0.19792        0.00000
 BRILLOUIN|   851           0.00087       -0.13542        0.21875        0.00000
 BRILLOUIN|   852           0.00087       -0.13542        0.23958        0.00000
 BRILLOUIN|   853           0.00087       -0.13542        0.26042        0.00000
 BRILLOUIN|   854           0.00087       -0.13542        0.28125        0.00000
 BRILLOUIN|   855           0.00087       -0.13542        0.30208        0.00000
 BRILLOUIN|   856           0.00087       -0.13542        0.32292        0.00000
 BRILLOUIN|   857           0.00087       -0.13542        0.34375        0.00000
 BRILLOUIN|   858           0.00087       -0.13542        0.36458        0.00000
 BRILLOUIN|   859           0.00087       -0.13542        0.38542        0.00000
 BRILLOUIN|   860           0.00087       -0.13542        0.40625        0.00000
 BRILLOUIN|   861           0.00087       -0.13542        0.42708        0.00000
 BRILLOUIN|   862           0.00087       -0.13542        0.44792        0.00000
 BRILLOUIN|   863           0.00087       -0.13542        0.46875        0.00000
 BRILLOUIN|   864           0.00087       -0.13542        0.48958        0.00000
 BRILLOUIN|   865           0.00087       -0.11458       -0.48958        0.00000
 BRILLOUIN|   866           0.00087       -0.11458       -0.46875        0.00000
 BRILLOUIN|   867           0.00087       -0.11458       -0.44792        0.00000
 BRILLOUIN|   868           0.00087       -0.11458       -0.42708        0.00000
 BRILLOUIN|   869           0.00087       -0.11458       -0.40625        0.00000
 BRILLOUIN|   870           0.00087       -0.11458       -0.38542        0.00000
 BRILLOUIN|   871           0.00087       -0.11458       -0.36458        0.00000
 BRILLOUIN|   872           0.00087       -0.11458       -0.34375        0.00000
 BRILLOUIN|   873           0.00087       -0.11458       -0.32292        0.00000
 BRILLOUIN|   874           0.00087       -0.11458       -0.30208        0.00000
 BRILLOUIN|   875           0.00087       -0.11458       -0.28125        0.00000
 BRILLOUIN|   876           0.00087       -0.11458       -0.26042        0.00000
 BRILLOUIN|   877           0.00087       -0.11458       -0.23958        0.00000
 BRILLOUIN|   878           0.00087       -0.11458       -0.21875        0.00000
 BRILLOUIN|   879           0.00087       -0.11458       -0.19792        0.00000
 BRILLOUIN|   880           0.00087       -0.11458       -0.17708        0.00000
 BRILLOUIN|   881           0.00087       -0.11458       -0.15625        0.00000
 BRILLOUIN|   882           0.00087       -0.11458       -0.13542        0.00000
 BRILLOUIN|   883           0.00087       -0.11458       -0.11458        0.00000
 BRILLOUIN|   884           0.00087       -0.11458       -0.09375        0.00000
 BRILLOUIN|   885           0.00087       -0.11458       -0.07292        0.00000
 BRILLOUIN|   886           0.00087       -0.11458       -0.05208        0.00000
 BRILLOUIN|   887           0.00087       -0.11458       -0.03125        0.00000
 BRILLOUIN|   888           0.00087       -0.11458       -0.01042        0.00000
 BRILLOUIN|   889           0.00087       -0.11458        0.01042        0.00000
 BRILLOUIN|   890           0.00087       -0.11458        0.03125        0.00000
 BRILLOUIN|   891           0.00087       -0.11458        0.05208        0.00000
 BRILLOUIN|   892           0.00087       -0.11458        0.07292        0.00000
 BRILLOUIN|   893           0.00087       -0.11458        0.09375        0.00000
 BRILLOUIN|   894           0.00087       -0.11458        0.11458        0.00000
 BRILLOUIN|   895           0.00087       -0.11458        0.13542        0.00000
 BRILLOUIN|   896           0.00087       -0.11458        0.15625        0.00000
 BRILLOUIN|   897           0.00087       -0.11458        0.17708        0.00000
 BRILLOUIN|   898           0.00087       -0.11458        0.19792        0.00000
 BRILLOUIN|   899           0.00087       -0.11458        0.21875        0.00000
 BRILLOUIN|   900           0.00087       -0.11458        0.23958        0.00000
 BRILLOUIN|   901           0.00087       -0.11458        0.26042        0.00000
 BRILLOUIN|   902           0.00087       -0.11458        0.28125        0.00000
 BRILLOUIN|   903           0.00087       -0.11458        0.30208        0.00000
 BRILLOUIN|   904           0.00087       -0.11458        0.32292        0.00000
 BRILLOUIN|   905           0.00087       -0.11458        0.34375        0.00000
 BRILLOUIN|   906           0.00087       -0.11458        0.36458        0.00000
 BRILLOUIN|   907           0.00087       -0.11458        0.38542        0.00000
 BRILLOUIN|   908           0.00087       -0.11458        0.40625        0.00000
 BRILLOUIN|   909           0.00087       -0.11458        0.42708        0.00000
 BRILLOUIN|   910           0.00087       -0.11458        0.44792        0.00000
 BRILLOUIN|   911           0.00087       -0.11458        0.46875        0.00000
 BRILLOUIN|   912           0.00087       -0.11458        0.48958        0.00000
 BRILLOUIN|   913           0.00087       -0.09375       -0.48958        0.00000
 BRILLOUIN|   914           0.00087       -0.09375       -0.46875        0.00000
 BRILLOUIN|   915           0.00087       -0.09375       -0.44792        0.00000
 BRILLOUIN|   916           0.00087       -0.09375       -0.42708        0.00000
 BRILLOUIN|   917           0.00087       -0.09375       -0.40625        0.00000
 BRILLOUIN|   918           0.00087       -0.09375       -0.38542        0.00000
 BRILLOUIN|   919           0.00087       -0.09375       -0.36458        0.00000
 BRILLOUIN|   920           0.00087       -0.09375       -0.34375        0.00000
 BRILLOUIN|   921           0.00087       -0.09375       -0.32292        0.00000
 BRILLOUIN|   922           0.00087       -0.09375       -0.30208        0.00000
 BRILLOUIN|   923           0.00087       -0.09375       -0.28125        0.00000
 BRILLOUIN|   924           0.00087       -0.09375       -0.26042        0.00000
 BRILLOUIN|   925           0.00087       -0.09375       -0.23958        0.00000
 BRILLOUIN|   926           0.00087       -0.09375       -0.21875        0.00000
 BRILLOUIN|   927           0.00087       -0.09375       -0.19792        0.00000
 BRILLOUIN|   928           0.00087       -0.09375       -0.17708        0.00000
 BRILLOUIN|   929           0.00087       -0.09375       -0.15625        0.00000
 BRILLOUIN|   930           0.00087       -0.09375       -0.13542        0.00000
 BRILLOUIN|   931           0.00087       -0.09375       -0.11458        0.00000
 BRILLOUIN|   932           0.00087       -0.09375       -0.09375        0.00000
 BRILLOUIN|   933           0.00087       -0.09375       -0.07292        0.00000
 BRILLOUIN|   934           0.00087       -0.09375       -0.05208        0.00000
 BRILLOUIN|   935           0.00087       -0.09375       -0.03125        0.00000
 BRILLOUIN|   936           0.00087       -0.09375       -0.01042        0.00000
 BRILLOUIN|   937           0.00087       -0.09375        0.01042        0.00000
 BRILLOUIN|   938           0.00087       -0.09375        0.03125        0.00000
 BRILLOUIN|   939           0.00087       -0.09375        0.05208        0.00000
 BRILLOUIN|   940           0.00087       -0.09375        0.07292        0.00000
 BRILLOUIN|   941           0.00087       -0.09375        0.09375        0.00000
 BRILLOUIN|   942           0.00087       -0.09375        0.11458        0.00000
 BRILLOUIN|   943           0.00087       -0.09375        0.13542        0.00000
 BRILLOUIN|   944           0.00087       -0.09375        0.15625        0.00000
 BRILLOUIN|   945           0.00087       -0.09375        0.17708        0.00000
 BRILLOUIN|   946           0.00087       -0.09375        0.19792        0.00000
 BRILLOUIN|   947           0.00087       -0.09375        0.21875        0.00000
 BRILLOUIN|   948           0.00087       -0.09375        0.23958        0.00000
 BRILLOUIN|   949           0.00087       -0.09375        0.26042        0.00000
 BRILLOUIN|   950           0.00087       -0.09375        0.28125        0.00000
 BRILLOUIN|   951           0.00087       -0.09375        0.30208        0.00000
 BRILLOUIN|   952           0.00087       -0.09375        0.32292        0.00000
 BRILLOUIN|   953           0.00087       -0.09375        0.34375        0.00000
 BRILLOUIN|   954           0.00087       -0.09375        0.36458        0.00000
 BRILLOUIN|   955           0.00087       -0.09375        0.38542        0.00000
 BRILLOUIN|   956           0.00087       -0.09375        0.40625        0.00000
 BRILLOUIN|   957           0.00087       -0.09375        0.42708        0.00000
 BRILLOUIN|   958           0.00087       -0.09375        0.44792        0.00000
 BRILLOUIN|   959           0.00087       -0.09375        0.46875        0.00000
 BRILLOUIN|   960           0.00087       -0.09375        0.48958        0.00000
 BRILLOUIN|   961           0.00087       -0.07292       -0.48958        0.00000
 BRILLOUIN|   962           0.00087       -0.07292       -0.46875        0.00000
 BRILLOUIN|   963           0.00087       -0.07292       -0.44792        0.00000
 BRILLOUIN|   964           0.00087       -0.07292       -0.42708        0.00000
 BRILLOUIN|   965           0.00087       -0.07292       -0.40625        0.00000
 BRILLOUIN|   966           0.00087       -0.07292       -0.38542        0.00000
 BRILLOUIN|   967           0.00087       -0.07292       -0.36458        0.00000
 BRILLOUIN|   968           0.00087       -0.07292       -0.34375        0.00000
 BRILLOUIN|   969           0.00087       -0.07292       -0.32292        0.00000
 BRILLOUIN|   970           0.00087       -0.07292       -0.30208        0.00000
 BRILLOUIN|   971           0.00087       -0.07292       -0.28125        0.00000
 BRILLOUIN|   972           0.00087       -0.07292       -0.26042        0.00000
 BRILLOUIN|   973           0.00087       -0.07292       -0.23958        0.00000
 BRILLOUIN|   974           0.00087       -0.07292       -0.21875        0.00000
 BRILLOUIN|   975           0.00087       -0.07292       -0.19792        0.00000
 BRILLOUIN|   976           0.00087       -0.07292       -0.17708        0.00000
 BRILLOUIN|   977           0.00087       -0.07292       -0.15625        0.00000
 BRILLOUIN|   978           0.00087       -0.07292       -0.13542        0.00000
 BRILLOUIN|   979           0.00087       -0.07292       -0.11458        0.00000
 BRILLOUIN|   980           0.00087       -0.07292       -0.09375        0.00000
 BRILLOUIN|   981           0.00087       -0.07292       -0.07292        0.00000
 BRILLOUIN|   982           0.00087       -0.07292       -0.05208        0.00000
 BRILLOUIN|   983           0.00087       -0.07292       -0.03125        0.00000
 BRILLOUIN|   984           0.00087       -0.07292       -0.01042        0.00000
 BRILLOUIN|   985           0.00087       -0.07292        0.01042        0.00000
 BRILLOUIN|   986           0.00087       -0.07292        0.03125        0.00000
 BRILLOUIN|   987           0.00087       -0.07292        0.05208        0.00000
 BRILLOUIN|   988           0.00087       -0.07292        0.07292        0.00000
 BRILLOUIN|   989           0.00087       -0.07292        0.09375        0.00000
 BRILLOUIN|   990           0.00087       -0.07292        0.11458        0.00000
 BRILLOUIN|   991           0.00087       -0.07292        0.13542        0.00000
 BRILLOUIN|   992           0.00087       -0.07292        0.15625        0.00000
 BRILLOUIN|   993           0.00087       -0.07292        0.17708        0.00000
 BRILLOUIN|   994           0.00087       -0.07292        0.19792        0.00000
 BRILLOUIN|   995           0.00087       -0.07292        0.21875        0.00000
 BRILLOUIN|   996           0.00087       -0.07292        0.23958        0.00000
 BRILLOUIN|   997           0.00087       -0.07292        0.26042        0.00000
 BRILLOUIN|   998           0.00087       -0.07292        0.28125        0.00000
 BRILLOUIN|   999           0.00087       -0.07292        0.30208        0.00000
 BRILLOUIN|  1000           0.00087       -0.07292        0.32292        0.00000
 BRILLOUIN|  1001           0.00087       -0.07292        0.34375        0.00000
 BRILLOUIN|  1002           0.00087       -0.07292        0.36458        0.00000
 BRILLOUIN|  1003           0.00087       -0.07292        0.38542        0.00000
 BRILLOUIN|  1004           0.00087       -0.07292        0.40625        0.00000
 BRILLOUIN|  1005           0.00087       -0.07292        0.42708        0.00000
 BRILLOUIN|  1006           0.00087       -0.07292        0.44792        0.00000
 BRILLOUIN|  1007           0.00087       -0.07292        0.46875        0.00000
 BRILLOUIN|  1008           0.00087       -0.07292        0.48958        0.00000
 BRILLOUIN|  1009           0.00087       -0.05208       -0.48958        0.00000
 BRILLOUIN|  1010           0.00087       -0.05208       -0.46875        0.00000
 BRILLOUIN|  1011           0.00087       -0.05208       -0.44792        0.00000
 BRILLOUIN|  1012           0.00087       -0.05208       -0.42708        0.00000
 BRILLOUIN|  1013           0.00087       -0.05208       -0.40625        0.00000
 BRILLOUIN|  1014           0.00087       -0.05208       -0.38542        0.00000
 BRILLOUIN|  1015           0.00087       -0.05208       -0.36458        0.00000
 BRILLOUIN|  1016           0.00087       -0.05208       -0.34375        0.00000
 BRILLOUIN|  1017           0.00087       -0.05208       -0.32292        0.00000
 BRILLOUIN|  1018           0.00087       -0.05208       -0.30208        0.00000
 BRILLOUIN|  1019           0.00087       -0.05208       -0.28125        0.00000
 BRILLOUIN|  1020           0.00087       -0.05208       -0.26042        0.00000
 BRILLOUIN|  1021           0.00087       -0.05208       -0.23958        0.00000
 BRILLOUIN|  1022           0.00087       -0.05208       -0.21875        0.00000
 BRILLOUIN|  1023           0.00087       -0.05208       -0.19792        0.00000
 BRILLOUIN|  1024           0.00087       -0.05208       -0.17708        0.00000
 BRILLOUIN|  1025           0.00087       -0.05208       -0.15625        0.00000
 BRILLOUIN|  1026           0.00087       -0.05208       -0.13542        0.00000
 BRILLOUIN|  1027           0.00087       -0.05208       -0.11458        0.00000
 BRILLOUIN|  1028           0.00087       -0.05208       -0.09375        0.00000
 BRILLOUIN|  1029           0.00087       -0.05208       -0.07292        0.00000
 BRILLOUIN|  1030           0.00087       -0.05208       -0.05208        0.00000
 BRILLOUIN|  1031           0.00087       -0.05208       -0.03125        0.00000
 BRILLOUIN|  1032           0.00087       -0.05208       -0.01042        0.00000
 BRILLOUIN|  1033           0.00087       -0.05208        0.01042        0.00000
 BRILLOUIN|  1034           0.00087       -0.05208        0.03125        0.00000
 BRILLOUIN|  1035           0.00087       -0.05208        0.05208        0.00000
 BRILLOUIN|  1036           0.00087       -0.05208        0.07292        0.00000
 BRILLOUIN|  1037           0.00087       -0.05208        0.09375        0.00000
 BRILLOUIN|  1038           0.00087       -0.05208        0.11458        0.00000
 BRILLOUIN|  1039           0.00087       -0.05208        0.13542        0.00000
 BRILLOUIN|  1040           0.00087       -0.05208        0.15625        0.00000
 BRILLOUIN|  1041           0.00087       -0.05208        0.17708        0.00000
 BRILLOUIN|  1042           0.00087       -0.05208        0.19792        0.00000
 BRILLOUIN|  1043           0.00087       -0.05208        0.21875        0.00000
 BRILLOUIN|  1044           0.00087       -0.05208        0.23958        0.00000
 BRILLOUIN|  1045           0.00087       -0.05208        0.26042        0.00000
 BRILLOUIN|  1046           0.00087       -0.05208        0.28125        0.00000
 BRILLOUIN|  1047           0.00087       -0.05208        0.30208        0.00000
 BRILLOUIN|  1048           0.00087       -0.05208        0.32292        0.00000
 BRILLOUIN|  1049           0.00087       -0.05208        0.34375        0.00000
 BRILLOUIN|  1050           0.00087       -0.05208        0.36458        0.00000
 BRILLOUIN|  1051           0.00087       -0.05208        0.38542        0.00000
 BRILLOUIN|  1052           0.00087       -0.05208        0.40625        0.00000
 BRILLOUIN|  1053           0.00087       -0.05208        0.42708        0.00000
 BRILLOUIN|  1054           0.00087       -0.05208        0.44792        0.00000
 BRILLOUIN|  1055           0.00087       -0.05208        0.46875        0.00000
 BRILLOUIN|  1056           0.00087       -0.05208        0.48958        0.00000
 BRILLOUIN|  1057           0.00087       -0.03125       -0.48958        0.00000
 BRILLOUIN|  1058           0.00087       -0.03125       -0.46875        0.00000
 BRILLOUIN|  1059           0.00087       -0.03125       -0.44792        0.00000
 BRILLOUIN|  1060           0.00087       -0.03125       -0.42708        0.00000
 BRILLOUIN|  1061           0.00087       -0.03125       -0.40625        0.00000
 BRILLOUIN|  1062           0.00087       -0.03125       -0.38542        0.00000
 BRILLOUIN|  1063           0.00087       -0.03125       -0.36458        0.00000
 BRILLOUIN|  1064           0.00087       -0.03125       -0.34375        0.00000
 BRILLOUIN|  1065           0.00087       -0.03125       -0.32292        0.00000
 BRILLOUIN|  1066           0.00087       -0.03125       -0.30208        0.00000
 BRILLOUIN|  1067           0.00087       -0.03125       -0.28125        0.00000
 BRILLOUIN|  1068           0.00087       -0.03125       -0.26042        0.00000
 BRILLOUIN|  1069           0.00087       -0.03125       -0.23958        0.00000
 BRILLOUIN|  1070           0.00087       -0.03125       -0.21875        0.00000
 BRILLOUIN|  1071           0.00087       -0.03125       -0.19792        0.00000
 BRILLOUIN|  1072           0.00087       -0.03125       -0.17708        0.00000
 BRILLOUIN|  1073           0.00087       -0.03125       -0.15625        0.00000
 BRILLOUIN|  1074           0.00087       -0.03125       -0.13542        0.00000
 BRILLOUIN|  1075           0.00087       -0.03125       -0.11458        0.00000
 BRILLOUIN|  1076           0.00087       -0.03125       -0.09375        0.00000
 BRILLOUIN|  1077           0.00087       -0.03125       -0.07292        0.00000
 BRILLOUIN|  1078           0.00087       -0.03125       -0.05208        0.00000
 BRILLOUIN|  1079           0.00087       -0.03125       -0.03125        0.00000
 BRILLOUIN|  1080           0.00087       -0.03125       -0.01042        0.00000
 BRILLOUIN|  1081           0.00087       -0.03125        0.01042        0.00000
 BRILLOUIN|  1082           0.00087       -0.03125        0.03125        0.00000
 BRILLOUIN|  1083           0.00087       -0.03125        0.05208        0.00000
 BRILLOUIN|  1084           0.00087       -0.03125        0.07292        0.00000
 BRILLOUIN|  1085           0.00087       -0.03125        0.09375        0.00000
 BRILLOUIN|  1086           0.00087       -0.03125        0.11458        0.00000
 BRILLOUIN|  1087           0.00087       -0.03125        0.13542        0.00000
 BRILLOUIN|  1088           0.00087       -0.03125        0.15625        0.00000
 BRILLOUIN|  1089           0.00087       -0.03125        0.17708        0.00000
 BRILLOUIN|  1090           0.00087       -0.03125        0.19792        0.00000
 BRILLOUIN|  1091           0.00087       -0.03125        0.21875        0.00000
 BRILLOUIN|  1092           0.00087       -0.03125        0.23958        0.00000
 BRILLOUIN|  1093           0.00087       -0.03125        0.26042        0.00000
 BRILLOUIN|  1094           0.00087       -0.03125        0.28125        0.00000
 BRILLOUIN|  1095           0.00087       -0.03125        0.30208        0.00000
 BRILLOUIN|  1096           0.00087       -0.03125        0.32292        0.00000
 BRILLOUIN|  1097           0.00087       -0.03125        0.34375        0.00000
 BRILLOUIN|  1098           0.00087       -0.03125        0.36458        0.00000
 BRILLOUIN|  1099           0.00087       -0.03125        0.38542        0.00000
 BRILLOUIN|  1100           0.00087       -0.03125        0.40625        0.00000
 BRILLOUIN|  1101           0.00087       -0.03125        0.42708        0.00000
 BRILLOUIN|  1102           0.00087       -0.03125        0.44792        0.00000
 BRILLOUIN|  1103           0.00087       -0.03125        0.46875        0.00000
 BRILLOUIN|  1104           0.00087       -0.03125        0.48958        0.00000
 BRILLOUIN|  1105           0.00087       -0.01042       -0.48958        0.00000
 BRILLOUIN|  1106           0.00087       -0.01042       -0.46875        0.00000
 BRILLOUIN|  1107           0.00087       -0.01042       -0.44792        0.00000
 BRILLOUIN|  1108           0.00087       -0.01042       -0.42708        0.00000
 BRILLOUIN|  1109           0.00087       -0.01042       -0.40625        0.00000
 BRILLOUIN|  1110           0.00087       -0.01042       -0.38542        0.00000
 BRILLOUIN|  1111           0.00087       -0.01042       -0.36458        0.00000
 BRILLOUIN|  1112           0.00087       -0.01042       -0.34375        0.00000
 BRILLOUIN|  1113           0.00087       -0.01042       -0.32292        0.00000
 BRILLOUIN|  1114           0.00087       -0.01042       -0.30208        0.00000
 BRILLOUIN|  1115           0.00087       -0.01042       -0.28125        0.00000
 BRILLOUIN|  1116           0.00087       -0.01042       -0.26042        0.00000
 BRILLOUIN|  1117           0.00087       -0.01042       -0.23958        0.00000
 BRILLOUIN|  1118           0.00087       -0.01042       -0.21875        0.00000
 BRILLOUIN|  1119           0.00087       -0.01042       -0.19792        0.00000
 BRILLOUIN|  1120           0.00087       -0.01042       -0.17708        0.00000
 BRILLOUIN|  1121           0.00087       -0.01042       -0.15625        0.00000
 BRILLOUIN|  1122           0.00087       -0.01042       -0.13542        0.00000
 BRILLOUIN|  1123           0.00087       -0.01042       -0.11458        0.00000
 BRILLOUIN|  1124           0.00087       -0.01042       -0.09375        0.00000
 BRILLOUIN|  1125           0.00087       -0.01042       -0.07292        0.00000
 BRILLOUIN|  1126           0.00087       -0.01042       -0.05208        0.00000
 BRILLOUIN|  1127           0.00087       -0.01042       -0.03125        0.00000
 BRILLOUIN|  1128           0.00087       -0.01042       -0.01042        0.00000
 BRILLOUIN|  1129           0.00087       -0.01042        0.01042        0.00000
 BRILLOUIN|  1130           0.00087       -0.01042        0.03125        0.00000
 BRILLOUIN|  1131           0.00087       -0.01042        0.05208        0.00000
 BRILLOUIN|  1132           0.00087       -0.01042        0.07292        0.00000
 BRILLOUIN|  1133           0.00087       -0.01042        0.09375        0.00000
 BRILLOUIN|  1134           0.00087       -0.01042        0.11458        0.00000
 BRILLOUIN|  1135           0.00087       -0.01042        0.13542        0.00000
 BRILLOUIN|  1136           0.00087       -0.01042        0.15625        0.00000
 BRILLOUIN|  1137           0.00087       -0.01042        0.17708        0.00000
 BRILLOUIN|  1138           0.00087       -0.01042        0.19792        0.00000
 BRILLOUIN|  1139           0.00087       -0.01042        0.21875        0.00000
 BRILLOUIN|  1140           0.00087       -0.01042        0.23958        0.00000
 BRILLOUIN|  1141           0.00087       -0.01042        0.26042        0.00000
 BRILLOUIN|  1142           0.00087       -0.01042        0.28125        0.00000
 BRILLOUIN|  1143           0.00087       -0.01042        0.30208        0.00000
 BRILLOUIN|  1144           0.00087       -0.01042        0.32292        0.00000
 BRILLOUIN|  1145           0.00087       -0.01042        0.34375        0.00000
 BRILLOUIN|  1146           0.00087       -0.01042        0.36458        0.00000
 BRILLOUIN|  1147           0.00087       -0.01042        0.38542        0.00000
 BRILLOUIN|  1148           0.00087       -0.01042        0.40625        0.00000
 BRILLOUIN|  1149           0.00087       -0.01042        0.42708        0.00000
 BRILLOUIN|  1150           0.00087       -0.01042        0.44792        0.00000
 BRILLOUIN|  1151           0.00087       -0.01042        0.46875        0.00000
 BRILLOUIN|  1152           0.00087       -0.01042        0.48958        0.00000
 *******************************************************************************

 *******************************************************************************
 *******************************************************************************
 **                                                                           **
 **     #####                         ##              ##                      **
 **    ##   ##            ##          ##              ##                      **
 **   ##     ##                       ##            ######                    **
 **   ##     ##  ##   ##  ##   #####  ##  ##   ####   ##    #####    #####    **
 **   ##     ##  ##   ##  ##  ##      ## ##   ##      ##   ##   ##  ##   ##   **
 **   ##  ## ##  ##   ##  ##  ##      ####     ###    ##   ######   ######    **
 **    ##  ###   ##   ##  ##  ##      ## ##      ##   ##   ##       ##        **
 **     #######   #####   ##   #####  ##  ##  ####    ##    #####   ##        **
 **           ##                                                    ##        **
 **                                                                           **
 **                                                ... make the atoms dance   **
 **                                                                           **
 **            Copyright (C) by CP2K developers group (2000-2025)             **
 **                      J. Chem. Phys. 152, 194103 (2020)                    **
 **                                                                           **
 *******************************************************************************

 DFT| Spin restricted Kohn-Sham (RKS) calculation                            RKS
 DFT| Multiplicity                                                             1
 DFT| Number of spin states                                                    1
 DFT| Charge                                                                   0
 DFT| Self-interaction correction (SIC)                                       NO
 DFT| Cutoffs: density                                              1.000000E-10
 DFT|          gradient                                             1.000000E-10
 DFT|          tau                                                  1.000000E-10
 DFT|          cutoff_smoothing_range                               0.000000E+00
 DFT| XC density smoothing                                                  NONE
 DFT| XC derivatives                                                          PW

 FUNCTIONAL| PBE:
 FUNCTIONAL| J.P.Perdew, K.Burke, M.Ernzerhof, Phys. Rev. Letter, vol. 77, n 18,
 FUNCTIONAL|  pp. 3865-3868, (1996) {spin unpolarized}                          


 QS| Method:                                                                 GPW
 QS| Density plane wave grid type                        NON-SPHERICAL FULLSPACE
 QS| Number of grid levels:                                                    4
 QS| Density cutoff [a.u.]:                                                500.0
 QS| Multi grid cutoff [a.u.]: 1) grid level                               500.0
 QS|                           2) grid level                               166.7
 QS|                           3) grid level                                55.6
 QS|                           4) grid level                                18.5
 QS| Grid level progression factor:                                          3.0
 QS| Relative density cutoff [a.u.]:                                        50.0
 QS| Interaction thresholds: eps_pgf_orb:                                1.0E-12
 QS|                         eps_filter_matrix:                          0.0E+00
 QS|                         eps_core_charge:                            1.0E-14
 QS|                         eps_rho_gspace:                             1.0E-12
 QS|                         eps_rho_rspace:                             1.0E-12
 QS|                         eps_gvg_rspace:                             1.0E-06
 QS|                         eps_ppl:                                    1.0E-02
 QS|                         eps_ppnl:                                   1.0E-08


 ATOMIC KIND INFORMATION

  1. Atomic kind: B                                     Number of atoms:       1

     Orbital Basis Set                                    DZVP-MOLOPT-PBE-GTH-q3

       Number of orbital shell sets:                                           1
       Number of orbital shells:                                               5
       Number of primitive Cartesian functions:                                5
       Number of Cartesian basis functions:                                   14
       Number of spherical basis functions:                                   13
       Norm type:                                                              2

       Normalised Cartesian orbitals:

                        Set   Shell   Orbital            Exponent    Coefficient

                          1       1    2s                3.575233      -0.251277
                                                         1.347699      -0.198106
                                                         0.614553       0.172878
                                                         0.253523       0.151700
                                                         0.085137       0.035450

                          1       2    3s                3.575233       0.549636
                                                         1.347699       0.196373
                                                         0.614553      -0.255207
                                                         0.253523      -0.051628
                                                         0.085137       0.138907

                          1       3    3px               3.575233      -0.379954
                                                         1.347699      -0.232253
                                                         0.614553      -0.197045
                                                         0.253523      -0.107441
                                                         0.085137      -0.025250
                          1       3    3py               3.575233      -0.379954
                                                         1.347699      -0.232253
                                                         0.614553      -0.197045
                                                         0.253523      -0.107441
                                                         0.085137      -0.025250
                          1       3    3pz               3.575233      -0.379954
                                                         1.347699      -0.232253
                                                         0.614553      -0.197045
                                                         0.253523      -0.107441
                                                         0.085137      -0.025250

                          1       4    4px               3.575233       0.795891
                                                         1.347699       0.510277
                                                         0.614553       0.370808
                                                         0.253523       0.096082
                                                         0.085137      -0.053145
                          1       4    4py               3.575233       0.795891
                                                         1.347699       0.510277
                                                         0.614553       0.370808
                                                         0.253523       0.096082
                                                         0.085137      -0.053145
                          1       4    4pz               3.575233       0.795891
                                                         1.347699       0.510277
                                                         0.614553       0.370808
                                                         0.253523       0.096082
                                                         0.085137      -0.053145

                          1       5    4dx2              3.575233      -0.146757
                                                         1.347699       0.616788
                                                         0.614553       0.145475
                                                         0.253523       0.099150
                                                         0.085137       0.002211
                          1       5    4dxy              3.575233      -0.254191
                                                         1.347699       1.068308
                                                         0.614553       0.251971
                                                         0.253523       0.171733
                                                         0.085137       0.003829
                          1       5    4dxz              3.575233      -0.254191
                                                         1.347699       1.068308
                                                         0.614553       0.251971
                                                         0.253523       0.171733
                                                         0.085137       0.003829
                          1       5    4dy2              3.575233      -0.146757
                                                         1.347699       0.616788
                                                         0.614553       0.145475
                                                         0.253523       0.099150
                                                         0.085137       0.002211
                          1       5    4dyz              3.575233      -0.254191
                                                         1.347699       1.068308
                                                         0.614553       0.251971
                                                         0.253523       0.171733
                                                         0.085137       0.003829
                          1       5    4dz2              3.575233      -0.146757
                                                         1.347699       0.616788
                                                         0.614553       0.145475
                                                         0.253523       0.099150
                                                         0.085137       0.002211

     RI Auxiliary Basis Set             RI_aug-DZVP-MOLOPT-GTH-tier-2_N_RI_030_s

       Number of orbital shell sets:                                          10
       Number of orbital shells:                                              10
       Number of primitive Cartesian functions:                               10
       Number of Cartesian basis functions:                                   35
       Number of spherical basis functions:                                   30
       Norm type:                                                              2

       Normalised Cartesian orbitals:

                        Set   Shell   Orbital            Exponent    Coefficient

                          1       1    1s                0.180620       0.197463

                          2       1    5px               0.192166       0.181357
                          2       1    5py               0.192166       0.181357
                          2       1    5pz               0.192166       0.181357

                          3       1    8dx2              0.214984       0.111717
                          3       1    8dxy              0.214984       0.193500
                          3       1    8dxz              0.214984       0.193500
                          3       1    8dy2              0.214984       0.111717
                          3       1    8dyz              0.214984       0.193500
                          3       1    8dz2              0.214984       0.111717

                          4       1   10fx3              0.273802       0.079834
                          4       1   10fx2y             0.273802       0.178514
                          4       1   10fx2z             0.273802       0.178514
                          4       1   10fxy2             0.273802       0.178514
                          4       1   10fxyz             0.273802       0.309196
                          4       1   10fxz2             0.273802       0.178514
                          4       1   10fy3              0.273802       0.079834
                          4       1   10fy2z             0.273802       0.178514
                          4       1   10fyz2             0.273802       0.178514
                          4       1   10fz3              0.273802       0.079834

                          5       1    2s                0.404248       0.361324

                          6       1    6px               0.423273       0.486649
                          6       1    6py               0.423273       0.486649
                          6       1    6pz               0.423273       0.486649

                          7       1    9dx2              0.729666       0.948150
                          7       1    9dxy              0.729666       1.642244
                          7       1    9dxz              0.729666       1.642244
                          7       1    9dy2              0.729666       0.948150
                          7       1    9dyz              0.729666       1.642244
                          7       1    9dz2              0.729666       0.948150

                          8       1    7px               0.994960       1.416436
                          8       1    7py               0.994960       1.416436
                          8       1    7pz               0.994960       1.416436

                          9       1    3s                1.133703       0.783041

                         10       1    4s                3.536645       1.838035

       Atomic covalent radius [Angstrom]:                                  0.820

       Atomic van der Waals radius [Angstrom]:                             1.920

     GTH Potential information for                                    GTH-PBE-q3

       Description:                       Goedecker-Teter-Hutter pseudopotential
                                           Goedecker et al., PRB 54, 1703 (1996)
                                          Hartwigsen et al., PRB 58, 3641 (1998)
                                                      Krack, TCA 114, 145 (2005)

       Gaussian exponent of the core charge distribution:               2.848129
       Electronic configuration (s p d ...):                               2   1

       Parameters of the local part of the GTH pseudopotential:

                          rloc        C1          C2          C3          C4
                        0.418991   -5.859462    0.903756

       Parameters of the non-local part of the GTH (SOC) pseudopotential:

                   l      r(l)      h(i,j,l)
                                    k(i,j,l)
                   0    0.371320    6.297280
                   1    0.364563    0.000000
                                    0.000855

  2. Atomic kind: N                                     Number of atoms:       1

     Orbital Basis Set                                    DZVP-MOLOPT-PBE-GTH-q5

       Number of orbital shell sets:                                           1
       Number of orbital shells:                                               5
       Number of primitive Cartesian functions:                                5
       Number of Cartesian basis functions:                                   14
       Number of spherical basis functions:                                   13
       Norm type:                                                              2

       Normalised Cartesian orbitals:

                        Set   Shell   Orbital            Exponent    Coefficient

                          1       1    2s                7.677291      -0.433945
                                                         2.819662      -0.225884
                                                         1.091144       0.281004
                                                         0.431009       0.272485
                                                         0.138938       0.015194

                          1       2    3s                7.677291       0.166796
                                                         2.819662       0.071789
                                                         1.091144      -0.075890
                                                         0.431009      -0.026983
                                                         0.138938       0.175604

                          1       3    3px               7.677291      -1.160805
                                                         2.819662      -0.968875
                                                         1.091144      -0.555552
                                                         0.431009      -0.214049
                                                         0.138938      -0.025189
                          1       3    3py               7.677291      -1.160805
                                                         2.819662      -0.968875
                                                         1.091144      -0.555552
                                                         0.431009      -0.214049
                                                         0.138938      -0.025189
                          1       3    3pz               7.677291      -1.160805
                                                         2.819662      -0.968875
                                                         1.091144      -0.555552
                                                         0.431009      -0.214049
                                                         0.138938      -0.025189

                          1       4    4px               7.677291       1.006840
                                                         2.819662       0.803085
                                                         1.091144       0.516640
                                                         0.431009       0.089613
                                                         0.138938      -0.129545
                          1       4    4py               7.677291       1.006840
                                                         2.819662       0.803085
                                                         1.091144       0.516640
                                                         0.431009       0.089613
                                                         0.138938      -0.129545
                          1       4    4pz               7.677291       1.006840
                                                         2.819662       0.803085
                                                         1.091144       0.516640
                                                         0.431009       0.089613
                                                         0.138938      -0.129545

                          1       5    4dx2              7.677291       2.735993
                                                         2.819662       0.863524
                                                         1.091144       0.633376
                                                         0.431009       0.247924
                                                         0.138938       0.003429
                          1       5    4dxy              7.677291       4.738879
                                                         2.819662       1.495667
                                                         1.091144       1.097040
                                                         0.431009       0.429417
                                                         0.138938       0.005939
                          1       5    4dxz              7.677291       4.738879
                                                         2.819662       1.495667
                                                         1.091144       1.097040
                                                         0.431009       0.429417
                                                         0.138938       0.005939
                          1       5    4dy2              7.677291       2.735993
                                                         2.819662       0.863524
                                                         1.091144       0.633376
                                                         0.431009       0.247924
                                                         0.138938       0.003429
                          1       5    4dyz              7.677291       4.738879
                                                         2.819662       1.495667
                                                         1.091144       1.097040
                                                         0.431009       0.429417
                                                         0.138938       0.005939
                          1       5    4dz2              7.677291       2.735993
                                                         2.819662       0.863524
                                                         1.091144       0.633376
                                                         0.431009       0.247924
                                                         0.138938       0.003429

     RI Auxiliary Basis Set             RI_aug-DZVP-MOLOPT-GTH-tier-2_N_RI_044_s

       Number of orbital shell sets:                                          12
       Number of orbital shells:                                              12
       Number of primitive Cartesian functions:                               12
       Number of Cartesian basis functions:                                   56
       Number of spherical basis functions:                                   44
       Norm type:                                                              2

       Normalised Cartesian orbitals:

                        Set   Shell   Orbital            Exponent    Coefficient

                          1       1    1s                0.216310       0.226056

                          2       1    8dx2              0.265130       0.161236
                          2       1    8dxy              0.265130       0.279270
                          2       1    8dxz              0.265130       0.279270
                          2       1    8dy2              0.265130       0.161236
                          2       1    8dyz              0.265130       0.279270
                          2       1    8dz2              0.265130       0.161236

                          3       1    5px               0.268516       0.275520
                          3       1    5py               0.268516       0.275520
                          3       1    5pz               0.268516       0.275520

                          4       1    2s                0.713648       0.553379

                          5       1    9dx2              1.074492       1.866445
                          5       1    9dxy              1.074492       3.232778
                          5       1    9dxz              1.074492       3.232778
                          5       1    9dy2              1.074492       1.866445
                          5       1    9dyz              1.074492       3.232778
                          5       1    9dz2              1.074492       1.866445

                          6       1   12gx4              1.149451       1.632241
                          6       1   12gx3y             1.149451       4.318503
                          6       1   12gx3z             1.149451       4.318503
                          6       1   12gx2y2            1.149451       5.575164
                          6       1   12gx2yz            1.149451       9.656467
                          6       1   12gx2z2            1.149451       5.575164
                          6       1   12gxy3             1.149451       4.318503
                          6       1   12gxy2z            1.149451       9.656467
                          6       1   12gxyz2            1.149451       9.656467
                          6       1   12gxz3             1.149451       4.318503
                          6       1   12gy4              1.149451       1.632241
                          6       1   12gy3z             1.149451       4.318503
                          6       1   12gy2z2            1.149451       5.575164
                          6       1   12gyz3             1.149451       4.318503
                          6       1   12gz4              1.149451       1.632241

                          7       1    6px               1.180204       1.753422
                          7       1    6py               1.180204       1.753422
                          7       1    6pz               1.180204       1.753422

                          8       1   11fx3              1.269836       2.519920
                          8       1   11fx2y             1.269836       5.634713
                          8       1   11fx2z             1.269836       5.634713
                          8       1   11fxy2             1.269836       5.634713
                          8       1   11fxyz             1.269836       9.759610
                          8       1   11fxz2             1.269836       5.634713
                          8       1   11fy3              1.269836       2.519920
                          8       1   11fy2z             1.269836       5.634713
                          8       1   11fyz2             1.269836       5.634713
                          8       1   11fz3              1.269836       2.519920

                          9       1    3s                1.803174       1.109017

                         10       1    7px               1.966699       3.319803
                         10       1    7py               1.966699       3.319803
                         10       1    7pz               1.966699       3.319803

                         11       1   10dx2              3.446878      14.351745
                         11       1   10dxy              3.446878      24.857951
                         11       1   10dxz              3.446878      24.857951
                         11       1   10dy2              3.446878      14.351745
                         11       1   10dyz              3.446878      24.857951
                         11       1   10dz2              3.446878      14.351745

                         12       1    4s                3.911976       1.982473

       Atomic covalent radius [Angstrom]:                                  0.750

       Atomic van der Waals radius [Angstrom]:                             1.550

     GTH Potential information for                                    GTH-PBE-q5

       Description:                       Goedecker-Teter-Hutter pseudopotential
                                           Goedecker et al., PRB 54, 1703 (1996)
                                          Hartwigsen et al., PRB 58, 3641 (1998)
                                                      Krack, TCA 114, 145 (2005)

       Gaussian exponent of the core charge distribution:               6.208322
       Electronic configuration (s p d ...):                               2   3

       Parameters of the local part of the GTH pseudopotential:

                          rloc        C1          C2          C3          C4
                        0.283791  -12.415226    1.868096

       Parameters of the non-local part of the GTH (SOC) pseudopotential:

                   l      r(l)      h(i,j,l)
                                    k(i,j,l)
                   0    0.255405   13.630263
                   1    0.245495    0.000000
                                    0.004148


 MOLECULE KIND INFORMATION


 All atoms are their own molecule, skipping detailed information


 TOTAL NUMBERS AND MAXIMUM NUMBERS

  Total number of            - Atomic kinds:                                   2
                             - Atoms:                                          2
                             - Shell sets:                                     2
                             - Shells:                                        10
                             - Primitive Cartesian functions:                 10
                             - Cartesian basis functions:                     28
                             - Spherical basis functions:                     26

  Maximum angular momentum of- Orbital basis functions:                        2
                             - Local part of the GTH pseudopotential:          2
                             - Non-local part of the GTH pseudopotential:      1


 MODULE QUICKSTEP: ATOMIC COORDINATES IN ANGSTROM

   Atom Kind Element         X             Y             Z       Z(eff)     Mass
      1    1 B     5      0.000000      1.449303      7.500000   3.0000  10.8110
      2    2 N     7      1.255134      0.724652      7.500000   5.0000  14.0067



 SCF PARAMETERS         Density guess:                                    ATOMIC
                        --------------------------------------------------------
                        max_scf:                                             500
                        max_scf_history:                                       0
                        max_diis:                                              4
                        --------------------------------------------------------
                        eps_scf:                                        1.00E-09
                        eps_scf_history:                                0.00E+00
                        eps_diis:                                       1.00E-01
                        eps_eigval:                                     1.00E-05
                        --------------------------------------------------------
                        level_shift [a.u.]:                             0.000000
                        added MOs                                        22    0
                        --------------------------------------------------------
                        Mixing method:                            BROYDEN_MIXING
                                                charge density mixing in g-space
                        --------------------------------------------------------
                        No outer SCF

 PW_GRID| Information for grid number                                          1
 PW_GRID| Grid distributed over                                   256 processors
 PW_GRID| Real space group dimensions                                    16   16
 PW_GRID| the grid is blocked:                                               YES
 PW_GRID| Cutoff [a.u.]                                                    500.0
 PW_GRID| spherical cutoff:                                                   NO
 PW_GRID|   Bounds   1            -24      23                Points:          48
 PW_GRID|   Bounds   2            -24      23                Points:          48
 PW_GRID|   Bounds   3           -144     143                Points:         288
 PW_GRID| Volume element (a.u.^3)  0.8323E-03     Volume (a.u.^3)       552.2884
 PW_GRID| Grid span                                                    FULLSPACE
 PW_GRID|   Distribution                         Average         Max         Min
 PW_GRID|   G-Vectors                             2592.0        2592        2592
 PW_GRID|   G-Rays                                  54.0          54          54
 PW_GRID|   Real Space Points                     2592.0        2592        2592

 PW_GRID| Information for grid number                                          2
 PW_GRID| Number of the reference grid                                         1
 PW_GRID| Grid distributed over                                   256 processors
 PW_GRID| Real space group dimensions                                    16   16
 PW_GRID| the grid is blocked:                                                NO
 PW_GRID| Cutoff [a.u.]                                                    166.7
 PW_GRID| spherical cutoff:                                                   NO
 PW_GRID|   Bounds   1            -13      13                Points:          27
 PW_GRID|   Bounds   2            -13      13                Points:          27
 PW_GRID|   Bounds   3            -90      89                Points:         180
 PW_GRID| Volume element (a.u.^3)  0.4209E-02     Volume (a.u.^3)       552.2884
 PW_GRID| Grid span                                                    FULLSPACE
 PW_GRID|   Distribution                         Average         Max         Min
 PW_GRID|   G-Vectors                              512.6        1458           0
 PW_GRID|   G-Rays                                  19.0          54           0
 PW_GRID|   Real Space Points                      512.6         720         180

 PW_GRID| Information for grid number                                          3
 PW_GRID| Number of the reference grid                                         1
 PW_GRID| Grid distributed over                                   256 processors
 PW_GRID| Real space group dimensions                                    16   16
 PW_GRID| the grid is blocked:                                                NO
 PW_GRID| Cutoff [a.u.]                                                     55.6
 PW_GRID| spherical cutoff:                                                   NO
 PW_GRID|   Bounds   1             -7       7                Points:          15
 PW_GRID|   Bounds   2             -7       7                Points:          15
 PW_GRID|   Bounds   3            -48      47                Points:          96
 PW_GRID| Volume element (a.u.^3)  0.2557E-01     Volume (a.u.^3)       552.2884
 PW_GRID| Grid span                                                    FULLSPACE
 PW_GRID|   Distribution                         Average         Max         Min
 PW_GRID|   G-Vectors                               84.4         810           0
 PW_GRID|   G-Rays                                   5.6          54           0
 PW_GRID|   Real Space Points                       84.4          96           0

 PW_GRID| Information for grid number                                          4
 PW_GRID| Number of the reference grid                                         1
 PW_GRID| Grid distributed over                                   256 processors
 PW_GRID| Real space group dimensions                                    16   16
 PW_GRID| the grid is blocked:                                                NO
 PW_GRID| Cutoff [a.u.]                                                     18.5
 PW_GRID| spherical cutoff:                                                   NO
 PW_GRID|   Bounds   1             -4       4                Points:           9
 PW_GRID|   Bounds   2             -4       4                Points:           9
 PW_GRID|   Bounds   3            -30      29                Points:          60
 PW_GRID| Volume element (a.u.^3)  0.1136         Volume (a.u.^3)       552.2884
 PW_GRID| Grid span                                                    FULLSPACE
 PW_GRID|   Distribution                         Average         Max         Min
 PW_GRID|   G-Vectors                               19.0         486           0
 PW_GRID|   G-Rays                                   2.1          54           0
 PW_GRID|   Real Space Points                       19.0          60           0

 POISSON| Solver                                                        PERIODIC
 POISSON| Periodicity                                                        XYZ

 *** WARNING in pw_env_methods.F:746 :: The selected periodicities in the ***
 *** sections &CELL and &POISSON do not match                             ***


 RS_GRID| Information for grid number                                          1
 RS_GRID|   Bounds   1            -24      23                Points:          48
 RS_GRID|   Bounds   2            -24      23                Points:          48
 RS_GRID|   Bounds   3           -144     143                Points:         288
 RS_GRID| Real space distribution over                                256 groups
 RS_GRID| Real space distribution along direction                              3
 RS_GRID| Border size                                                         54
 RS_GRID|   Distribution                         Average         Max         Min
 RS_GRID|   Planes                                 109.1         110         109

 RS_GRID| Information for grid number                                          2
 RS_GRID|   Bounds   1            -13      13                Points:          27
 RS_GRID|   Bounds   2            -13      13                Points:          27
 RS_GRID|   Bounds   3            -90      89                Points:         180
 RS_GRID| Real space fully replicated
 RS_GRID| Group size                                                           1

 RS_GRID| Information for grid number                                          3
 RS_GRID|   Bounds   1             -7       7                Points:          15
 RS_GRID|   Bounds   2             -7       7                Points:          15
 RS_GRID|   Bounds   3            -48      47                Points:          96
 RS_GRID| Real space fully replicated
 RS_GRID| Group size                                                           1

 RS_GRID| Information for grid number                                          4
 RS_GRID|   Bounds   1             -4       4                Points:           9
 RS_GRID|   Bounds   2             -4       4                Points:           9
 RS_GRID|   Bounds   3            -30      29                Points:          60
 RS_GRID| Real space fully replicated
 RS_GRID| Group size                                                           1

 Extrapolation method: initial_guess

 Atomic guess: The first density matrix is obtained in terms of atomic orbitals
               and electronic configurations assigned to each atomic kind

 Guess for atomic kind: B

 Electronic structure
    Total number of core electrons                                          2.00
    Total number of valence electrons                                       3.00
    Total number of electrons                                               5.00
    Multiplicity                                                   not specified
    S   [  2.00] 2.00
    P      1.00


 *******************************************************************************
                  Iteration          Convergence                     Energy [au]
 *******************************************************************************
                          1        0.325026E-01                  -2.531431462339
                          2        0.794198E-02                  -2.532232903970
                          3        0.181905E-03                  -2.532303532757
                          4        0.158091E-07                  -2.532303564880

 Energy components [Hartree]           Total Energy ::           -2.532303564880
                                        Band Energy ::           -0.773727808980
                                     Kinetic Energy ::            1.370431419697
                                   Potential Energy ::           -3.902734984577
                                      Virial (-V/T) ::            2.847814876748
                                        Core Energy ::           -3.747357403416
                                          XC Energy ::           -0.780542086598
                                     Coulomb Energy ::            1.995595925134
                       Total Pseudopotential Energy ::           -5.147770522135
                       Local Pseudopotential Energy ::           -5.530216107925
                    Nonlocal Pseudopotential Energy ::            0.382445585791
                                        Confinement ::            0.299816990216

 Orbital energies  State     L     Occupation   Energy[a.u.]          Energy[eV]

                       1     0          2.000      -0.329315           -8.961115

                       1     1          1.000      -0.115098           -3.131975


 Total Electron Density at R=0:                                         0.000062

 Guess for atomic kind: N

 Electronic structure
    Total number of core electrons                                          2.00
    Total number of valence electrons                                       5.00
    Total number of electrons                                               7.00
    Multiplicity                                                   not specified
    S   [  2.00] 2.00
    P      3.00


 *******************************************************************************
                  Iteration          Convergence                     Energy [au]
 *******************************************************************************
                          1        0.322596                      -9.510909083633
                          2        0.246559                      -9.522701400431
                          3        0.169688E-02                  -9.544189244530
                          4        0.170000E-02                  -9.544189241162
                          5        0.170000E-02                  -9.544189241167
                          6        0.170000E-02                  -9.544189241168
                          7        0.727984E-06                  -9.544190158775

 Energy components [Hartree]           Total Energy ::           -9.544190158775
                                        Band Energy ::           -2.076540837543
                                     Kinetic Energy ::            6.789636515854
                                   Potential Energy ::          -16.333826674629
                                      Virial (-V/T) ::            2.405699721405
                                        Core Energy ::          -15.521133941227
                                          XC Energy ::           -2.157281908222
                                     Coulomb Energy ::            8.134225690674
                       Total Pseudopotential Energy ::          -22.348373259271
                       Local Pseudopotential Energy ::          -23.220555347310
                    Nonlocal Pseudopotential Energy ::            0.872182088039
                                        Confinement ::            0.376028021895

 Orbital energies  State     L     Occupation   Energy[a.u.]          Energy[eV]

                       1     0          2.000      -0.667577          -18.165690

                       1     1          3.000      -0.247129           -6.724723


 Total Electron Density at R=0:                                         0.000315
 Re-scaling the density matrix to get the right number of electrons
                  # Electrons              Trace(P)               Scaling factor
                            8                 8.000                        1.000

 Number of electrons:                                                          8
 Number of occupied orbitals:                                                  4
 Number of molecular orbitals:                                                26

 Number of orbital functions:                                                 26
 Number of independent orbital functions:                                     26


 SCF WAVEFUNCTION OPTIMIZATION

  Step     Update method      Time    Convergence         Total energy    Change
  ------------------------------------------------------------------------------
     1 NoMix/Diag. 0.10E+00   20.7     1.15760159       -12.9028555379 -1.29E+01
     2 Broy./Diag. 0.10E+00   13.0     0.02433121       -11.0583786298  1.84E+00
     3 Broy./Diag. 0.10E+00   12.6     0.17328473       -11.8105792869 -7.52E-01
     4 Broy./Diag. 0.10E+00    9.2     0.00916784       -12.5913354430 -7.81E-01
     5 Broy./Diag. 0.10E+00    9.8     0.06389585       -12.6897290625 -9.84E-02
     6 Broy./Diag. 0.10E+00    9.2     0.00147664       -12.7649268475 -7.52E-02
     7 Broy./Diag. 0.10E+00    9.6     0.01087260       -12.8029064379 -3.80E-02
     8 Broy./Diag. 0.10E+00    7.7     0.00194993       -12.8444497968 -4.15E-02
     9 Broy./Diag. 0.10E+00    9.4     0.01400943       -12.8501276451 -5.68E-03
    10 Broy./Diag. 0.10E+00    8.2     0.00034053       -12.8713090622 -2.12E-02
    11 Broy./Diag. 0.10E+00    7.5     0.00322911       -12.8616908322  9.62E-03
    12 Broy./Diag. 0.10E+00    9.5     0.00025642       -12.8681046262 -6.41E-03
    13 Broy./Diag. 0.10E+00    8.2     0.00182702       -12.8729973816 -4.89E-03
    14 Broy./Diag. 0.10E+00    7.4     0.00008695       -12.8755293306 -2.53E-03
    15 Broy./Diag. 0.10E+00    6.9     0.00139704       -12.8743756196  1.15E-03
    16 Broy./Diag. 0.10E+00    6.9     0.00044525       -12.8750482945 -6.73E-04
    17 Broy./Diag. 0.10E+00    7.4     0.00079086       -12.8755866985 -5.38E-04
    18 Broy./Diag. 0.10E+00    6.8     0.00053631       -12.8750607761  5.26E-04
    19 Broy./Diag. 0.10E+00    6.8     0.00021412       -12.8749949283  6.58E-05
    20 Broy./Diag. 0.10E+00    6.6     0.00025733       -12.8754760707 -4.81E-04
    21 Broy./Diag. 0.10E+00    6.7     0.00001440       -12.8756528493 -1.77E-04
    22 Broy./Diag. 0.10E+00    7.1     0.00006580       -12.8757767965 -1.24E-04
    23 Broy./Diag. 0.10E+00    6.5     0.00004031       -12.8756903672  8.64E-05
    24 Broy./Diag. 0.10E+00    6.5     0.00004822       -12.8756322927  5.81E-05
    25 Broy./Diag. 0.10E+00    6.5     0.00001137       -12.8756472927 -1.50E-05
    26 Broy./Diag. 0.10E+00    6.9     0.00000827       -12.8756469703  3.22E-07
    27 Broy./Diag. 0.10E+00    6.6     0.00002566       -12.8755970694  4.99E-05
    28 Broy./Diag. 0.10E+00    6.4     0.00004056       -12.8755920020  5.07E-06
    29 Broy./Diag. 0.10E+00    6.7     0.00000430       -12.8756493710 -5.74E-05
    30 Broy./Diag. 0.10E+00    7.0     0.00000688       -12.8756421154  7.26E-06
    31 Broy./Diag. 0.10E+00    8.2     0.00000249       -12.8756315729  1.05E-05
    32 Broy./Diag. 0.10E+00    6.7     0.00000340       -12.8756260551  5.52E-06
    33 Broy./Diag. 0.10E+00    8.4     0.00000323       -12.8756366743 -1.06E-05
    34 Broy./Diag. 0.10E+00    7.4     0.00000418       -12.8756456324 -8.96E-06
    35 Broy./Diag. 0.10E+00    8.7     0.00000399       -12.8756467504 -1.12E-06
    36 Broy./Diag. 0.10E+00    7.0     0.00000454       -12.8756465783  1.72E-07
    37 Broy./Diag. 0.10E+00    6.7     0.00000164       -12.8756475438 -9.65E-07
    38 Broy./Diag. 0.10E+00    9.0     0.00000057       -12.8756465196  1.02E-06
    39 Broy./Diag. 0.10E+00    7.5     0.00000023       -12.8756447800  1.74E-06
    40 Broy./Diag. 0.10E+00    6.9     0.00000010       -12.8756433419  1.44E-06
    41 Broy./Diag. 0.10E+00    9.2     0.00000038       -12.8756427910  5.51E-07
    42 Broy./Diag. 0.10E+00    7.2     0.00000002       -12.8756439354 -1.14E-06
    43 Broy./Diag. 0.10E+00    6.9     0.00000010       -12.8756435964  3.39E-07
    44 Broy./Diag. 0.10E+00    6.4     0.00000006       -12.8756433115  2.85E-07
    45 Broy./Diag. 0.10E+00    6.4     0.00000003       -12.8756434720 -1.61E-07
    46 Broy./Diag. 0.10E+00    6.7     0.00000006       -12.8756436766 -2.05E-07
    47 Broy./Diag. 0.10E+00    6.9     0.00000005       -12.8756437015 -2.50E-08
    48 Broy./Diag. 0.10E+00    6.4     0.00000009       -12.8756436688  3.27E-08
    49 Broy./Diag. 0.10E+00    6.6     0.00000001       -12.8756436663  2.55E-09
    50 Broy./Diag. 0.10E+00    6.3     0.00000004       -12.8756436375  2.88E-08
    51 Broy./Diag. 0.10E+00    6.9     0.00000002       -12.8756435885  4.90E-08
    52 Broy./Diag. 0.10E+00    6.5     0.00000002       -12.8756435537  3.49E-08
    53 Broy./Diag. 0.10E+00    6.3     0.00000002       -12.8756435829 -2.92E-08
    54 Broy./Diag. 0.10E+00    6.3     7.8678E-09       -12.8756436081 -2.52E-08
    55 Broy./Diag. 0.10E+00    6.7     6.5788E-09       -12.8756435552  5.28E-08
    56 Broy./Diag. 0.10E+00    7.0     8.2880E-09       -12.8756435221  3.31E-08
    57 Broy./Diag. 0.10E+00    6.9     2.0059E-09       -12.8756435286 -6.45E-09
    58 Broy./Diag. 0.10E+00    6.3     3.7030E-09       -12.8756435502 -2.16E-08
    59 Broy./Diag. 0.10E+00    6.5     8.8161E-10       -12.8756435541 -3.87E-09

  *** SCF run converged in    59 steps ***


  Electronic density on regular grids:         -8.0000000000        0.0000000000
  Core density on regular grids:                8.0000000000       -0.0000000000
  Total charge density on r-space grids:       -0.0000000000
  Total charge density g-space grids:          -0.0000000000

  Overlap energy of the core charge distribution:               0.00000102720762
  Self energy of the core charge distribution:                -30.91005782344042
  Core Hamiltonian energy:                                      9.51817094801832
  Hartree energy:                                              12.19466359068906
  Exchange-correlation energy:                                 -3.67842129656512

  Total energy:                                               -12.87564355409054

 !-----------------------------------------------------------------------------!
                     Mulliken Population Analysis

 #  Atom  Element  Kind  Atomic population                           Net charge
       1     B        1          2.581024                              0.418976
       2     N        2          5.418976                             -0.418976
 # Total charge                              8.000000                  0.000000

 !-----------------------------------------------------------------------------!

 !-----------------------------------------------------------------------------!
                           Hirshfeld Charges

  #Atom  Element  Kind  Ref Charge     Population                    Net charge
      1       B      1       3.000          2.612                         0.388
      2       N      2       5.000          5.388                        -0.388

  Total Charge                                                            0.000
 !-----------------------------------------------------------------------------!
  
 -------------------------------------------------------------------------------
 -                                                                             -
 -                          BANDSTRUCTURE CALCULATION                          -
 -                                                                             -
 -------------------------------------------------------------------------------
  
 Number of occupied molecular orbitals (MOs) = Number of occupied bands        4
 Number of unoccupied (= virtual) MOs = Number of unoccupied bands            22
 Number of Gaussian basis functions for MOs                                   26
 Number of cells considered in the DFT calculation                           215
 Number of cells for G, χ, W, Σ                                             2209
 Number of special k-points for the bandstructure                              4
 Number of k-points for the bandstructure                                   2452
  
 -------------------------------------------------------------------------------
 -                                                                             -
 -                                GW CALCULATION                               -
 -                                                                             -
 -------------------------------------------------------------------------------
  
 Input: Number of time/freq. points                                           30
 Input: ω_max for fitting Σ(iω) (eV)                                        10.0
 Input: Filter threshold for sparse tensor operations                    1.0E-11
 Input: Apply Hedin shift                                                      F
  
 Number of auxiliary Gaussian basis functions for χ, ε, W                     74
 Cutoff radius for the truncated Coulomb operator in Σ^x:                 51.1 Å
 Cutoff radius for the truncated Coulomb operator in RI metric:            7.0 Å
 Regularization parameter of RI                                          1.0E-02
 Regularization parameter of minimax grids                               1.0E-06
 Lattice sum size for V(k):                                                    3
  
 K-point mesh 1 for χ, ε, W                                          192 192   1
 K-point mesh 2 for χ, ε, W (for k-point extrapolation of W)         384 384   1
 Approximate the k-point extrapolation                                         F
 Radius of atomic orbitals                                                10.7 Å
 Radius of RI functions                                                    7.3 Å
 Number of cells for 3c integrals                                            311
 Number of cell pairs for 3c integrals                                     22925
 
 Input: Available memory per MPI process                                 16.0 GB
 Used memory per MPI process before GW run                                0.4 GB
 Memory of three-center integrals                                         9.2 GB
 Group size for tensor operations                                              1
 Number of cells ΔR                                                         1200
 Min. abs. eigenvalue of RI metric matrix M(k)                           1.3E-05
 Max. abs. eigenvalue of RI metric matrix M(k)                           8.4E+02
 Max. condition number of M(k)                                           1.6E+07
 
 SCF direct band gap (eV)                                                   4.66
 Max. SCF eigval diff. (eV)                                               238.49
 E-Range for minimax grid                                                  51.23
 Number of Padé parameters for analytic continuation:                         16
 
 Computed χ^R(iτ) for time point            1 / 30,      Execution time  191.4 s
 Computed χ^R(iτ) for time point            2 / 30,      Execution time  166.2 s
 Computed χ^R(iτ) for time point            3 / 30,      Execution time  165.4 s
 Computed χ^R(iτ) for time point            4 / 30,      Execution time  159.8 s
 Computed χ^R(iτ) for time point            5 / 30,      Execution time  164.6 s
 Computed χ^R(iτ) for time point            6 / 30,      Execution time  159.7 s
 Computed χ^R(iτ) for time point            7 / 30,      Execution time  159.9 s
 Computed χ^R(iτ) for time point            8 / 30,      Execution time  161.4 s
 Computed χ^R(iτ) for time point            9 / 30,      Execution time  157.6 s
 Computed χ^R(iτ) for time point           10 / 30,      Execution time  156.8 s
 Computed χ^R(iτ) for time point           11 / 30,      Execution time  155.6 s
 Computed χ^R(iτ) for time point           12 / 30,      Execution time  152.1 s
 Computed χ^R(iτ) for time point           13 / 30,      Execution time  149.3 s
 Computed χ^R(iτ) for time point           14 / 30,      Execution time  149.8 s
 Computed χ^R(iτ) for time point           15 / 30,      Execution time  148.0 s
 Computed χ^R(iτ) for time point           16 / 30,      Execution time  151.0 s
 Computed χ^R(iτ) for time point           17 / 30,      Execution time  150.3 s
 Computed χ^R(iτ) for time point           18 / 30,      Execution time  147.5 s
 Computed χ^R(iτ) for time point           19 / 30,      Execution time  139.8 s
 Computed χ^R(iτ) for time point           20 / 30,      Execution time  128.3 s
 Computed χ^R(iτ) for time point           21 / 30,      Execution time  113.6 s
 Computed χ^R(iτ) for time point           22 / 30,      Execution time   94.1 s
 Computed χ^R(iτ) for time point           23 / 30,      Execution time   27.5 s
 Computed χ^R(iτ) for time point           24 / 30,      Execution time   19.0 s
 Computed χ^R(iτ) for time point           25 / 30,      Execution time   18.2 s
 Computed χ^R(iτ) for time point           26 / 30,      Execution time   19.0 s
 Computed χ^R(iτ) for time point           27 / 30,      Execution time   19.8 s
 Computed χ^R(iτ) for time point           28 / 30,      Execution time   17.5 s
 Computed χ^R(iτ) for time point           29 / 30,      Execution time   18.1 s
 Computed χ^R(iτ) for time point           30 / 30,      Execution time   18.0 s
 Computed V_PQ(k),                                       Execution time 9476.7 s
 
 Computed W_PQ(k,iω) for all k and τ,                    Execution time 3861.9 s
 
 Computed Σ^x,                                           Execution time  178.4 s
 
 Computed Σ^c(iτ) for time point            1 / 30,      Execution time  219.6 s
 Computed Σ^c(iτ) for time point            2 / 30,      Execution time  120.3 s
 Computed Σ^c(iτ) for time point            3 / 30,      Execution time  117.8 s
 Computed Σ^c(iτ) for time point            4 / 30,      Execution time  115.4 s
 Computed Σ^c(iτ) for time point            5 / 30,      Execution time  114.9 s
 Computed Σ^c(iτ) for time point            6 / 30,      Execution time  113.6 s
 Computed Σ^c(iτ) for time point            7 / 30,      Execution time  112.1 s
 Computed Σ^c(iτ) for time point            8 / 30,      Execution time  110.1 s
 Computed Σ^c(iτ) for time point            9 / 30,      Execution time  107.6 s
 Computed Σ^c(iτ) for time point           10 / 30,      Execution time  105.9 s
 Computed Σ^c(iτ) for time point           11 / 30,      Execution time  103.0 s
 Computed Σ^c(iτ) for time point           12 / 30,      Execution time  100.6 s
 Computed Σ^c(iτ) for time point           13 / 30,      Execution time   98.7 s
 Computed Σ^c(iτ) for time point           14 / 30,      Execution time   95.4 s
 Computed Σ^c(iτ) for time point           15 / 30,      Execution time   92.2 s
 Computed Σ^c(iτ) for time point           16 / 30,      Execution time   87.8 s
 Computed Σ^c(iτ) for time point           17 / 30,      Execution time   84.5 s
 Computed Σ^c(iτ) for time point           18 / 30,      Execution time   78.4 s
 Computed Σ^c(iτ) for time point           19 / 30,      Execution time   72.4 s
 Computed Σ^c(iτ) for time point           20 / 30,      Execution time   66.4 s
 Computed Σ^c(iτ) for time point           21 / 30,      Execution time   27.0 s
 Computed Σ^c(iτ) for time point           22 / 30,      Execution time   23.3 s
 Computed Σ^c(iτ) for time point           23 / 30,      Execution time   22.1 s
 Computed Σ^c(iτ) for time point           24 / 30,      Execution time   21.9 s
 Computed Σ^c(iτ) for time point           25 / 30,      Execution time   22.0 s
 Computed Σ^c(iτ) for time point           26 / 30,      Execution time   21.3 s
 Computed Σ^c(iτ) for time point           27 / 30,      Execution time   21.7 s
 Computed Σ^c(iτ) for time point           28 / 30,      Execution time   21.9 s
 Computed Σ^c(iτ) for time point           29 / 30,      Execution time   21.8 s
 Computed Σ^c(iτ) for time point           30 / 30,      Execution time   21.5 s

 
 SCF valence band maximum (eV):                                           -3.850
 SCF conduction band minimum (eV):                                         0.806
 SCF indirect band gap (eV):                                               4.655
 SCF direct band gap (eV):                                                 4.655
 
 G0W0 valence band maximum (eV):                                          -4.896
 G0W0 conduction band minimum (eV):                                        2.503
 G0W0 indirect band gap (eV):                                              7.399
 G0W0 direct band gap (eV):                                                7.399
 
 Hartree-Fock with SCF orbitals valence band maximum (eV):                -7.138
 Hartree-Fock with SCF orbitals conduction band minimum (eV)               6.085
 Hartree-Fock with SCF orbitals indirect band gap (eV):                   13.222
 Hartree-Fock with SCF orbitals direct band gap (eV):                     13.257

 ENERGY| Total FORCE_EVAL ( QS ) energy [hartree]            -12.875643551740733

 -------------------------------------------------------------------------------
 -                                                                             -
 -                                DBCSR STATISTICS                             -
 -                                                                             -
 -------------------------------------------------------------------------------
 COUNTER                                    TOTAL       BLAS       SMM       ACC
 flops inhomo. stacks                           0       0.0%      0.0%      0.0%
 flops total                         0.000000E+00       0.0%      0.0%      0.0%
 flops max/rank                      0.000000E+00       0.0%      0.0%      0.0%
 matmuls inhomo. stacks                         0       0.0%      0.0%      0.0%
 matmuls total                                  0       0.0%      0.0%      0.0%
 number of processed stacks                     0       0.0%      0.0%      0.0%
 average stack size                                     0.0       0.0       0.0
 marketing flops                     0.000000E+00
 -------------------------------------------------------------------------------
 -                                                                             -
 -                      DBCSR MESSAGE PASSING PERFORMANCE                      -
 -                                                                             -
 -------------------------------------------------------------------------------
 ROUTINE             CALLS      AVE VOLUME [Bytes]
 MP_Bcast                1                     12.
 MP_Allreduce           19                     21.
 MP_Alltoall      11501785                 173359.
 -------------------------------------------------------------------------------

 -------------------------------------------------------------------------------
 -                                                                             -
 -                                DBM STATISTICS                               -
 -                                                                             -
 -------------------------------------------------------------------------------
    M  x    N  x    K                                          COUNT     PERCENT
   ??  x   ??  x  ???                                     1032352799      14.43%
    ?  x    ?  x    ?                                     3561218382      49.77%
  ???  x   ??  x   ??                                     2561562621      35.80%
 -------------------------------------------------------------------------------
 Memory consumption                Number of allocations  Used [MiB]  Size [MiB]
 Host                                              60356        7562        9420
 -------------------------------------------------------------------------------

 -------------------------------------------------------------------------------
 -                                                                             -
 -                                GRID STATISTICS                              -
 -                                                                             -
 -------------------------------------------------------------------------------
 LP    KERNEL             BACKEND                              COUNT     PERCENT
 4     integrate general  CPU                                 152086      50.56%
 4     collocate general  CPU                                 147180      48.93%
 0     collocate general  CPU                                   1024       0.34%
 0     integrate general  CPU                                    512       0.17%
 -------------------------------------------------------------------------------

 MEMORY| Estimated peak process memory [MiB]                               10805

 -------------------------------------------------------------------------------
 ----                             MULTIGRID INFO                            ----
 -------------------------------------------------------------------------------
 count for grid        1:        1114787          cutoff [a.u.]          500.00
 count for grid        2:         862230          cutoff [a.u.]          166.67
 count for grid        3:         483320          cutoff [a.u.]           55.56
 count for grid        4:         176912          cutoff [a.u.]           18.52
 total gridlevel count  :        2637249

 -------------------------------------------------------------------------------
 -                                                                             -
 -                         MESSAGE PASSING PERFORMANCE                         -
 -                                                                             -
 -------------------------------------------------------------------------------

 ROUTINE             CALLS      AVE VOLUME [Bytes]
 MP_Group         22384476
 MP_Bcast         16281171                    336.
 MP_Allreduce     41567340                   3878.
 MP_Sync          38468880
 MP_Alltoall      17247766                    957.
 MP_SendRecv         45900                   2336.
 MP_ISendRecv        47430                   2336.
 MP_Wait           3480065
 MP_comm_split    13833839
 MP_ISend        110748508                   2266.
 MP_IRecv         10028676                   2572.
 -------------------------------------------------------------------------------


 -------------------------------------------------------------------------------
 -                                                                             -
 -                           R E F E R E N C E S                               -
 -                                                                             -
 -------------------------------------------------------------------------------
 
 CP2K version 2025.2 (Development Version), the CP2K developers group (2025).
 CP2K is freely available from https://www.cp2k.org/ .
 
 M. Graml, K. Zollner, D. Hernangómez-Pérez, P. E. Faria Junior, J. Wilhelm.
 J. Chem. Theory Comput. 20, 2202-2208 (2024).
 Low-scaling GW algorithm applied to twisted transition-metal dichalcogenide 
 heterobilayers.
 https://doi.org/10.1021/acs.jctc.3c01230

 T. D. Kuehne, M. Iannuzzi, M. Del Ben, V. V. Rybkin, P. Seewald, F. Stein, T. 
 Laino, R. Z. Khaliullin, O. Schuett, F. Schiffmann, D. Golze, J. Wilhelm, S. 
 Chulkov, M. H. Bani-Hashemian, V. Weber, U. Borstnik, M. Taillefumier, A. S. 
 Jakobovits, A. Lazzaro, H. Pabst, T. Mueller, R. Schade, M. Guidon, S. 
 Andermatt, N. Holmberg, G. K. Schenter, A. Hehn, A. Bussy, F. Belleflamme, G. 
 Tabacchi, A. Gloess, M. Lass, I. Bethune, C. J. Mundy, C. Plessl, M. Watkins, 
 J. VandeVondele, M. Krack, J. Hutter.
 J. Chem. Phys. 152, 194103 (2020).
 CP2K: An electronic structure and molecular dynamics software package - 
 Quickstep: Efficient and accurate electronic structure calculations.
 https://doi.org/10.1063/5.0007045

 A. Togo, I. Tanaka.
 arXiv, 1808.01590 (2018).
 Spglib : a software library for crystal symmetry search.

 O. Schuett, P. Messmer, J. Hutter, J. VandeVondele.
 Electronic Structure Calculations on Graphics Processing Units, 173-190 (2016).
 GPU-Accelerated Sparse Matrix-Matrix Multiplication for Linear Scaling Density 
 Functional Theory.
 https://doi.org/10.1002/9781118670712.ch8

 A. Heinecke, G. Henry, M. Hutchinson, H. Pabst.
 Proceedings of Intl. Supercomputing Conference, 981-991 (2016).
 LIBXSMM: Accelerating Small Matrix Multiplications by Runtime Code Generation.
 https://doi.org/10.1109/SC.2016.83

 J. Hutter, M. Iannuzzi, F. Schiffmann, J. VandeVondele.
 WIREs Comput Mol Sci. 4, 15-25 (2014).
 CP2K: atomistic simulations of condensed matter systems.
 https://doi.org/10.1002/wcms.1159

 U. Borstnik, J. VandeVondele, V. Weber, J. Hutter.
 Parallel Comput. 40, 47-58 (2014).
 Sparse matrix multiplication: The distributed block-compressed sparse row 
 library.
 https://doi.org/10.1016/j.parco.2014.03.012

 A. Marek, V. Blum, R. Johanni, V. Havu, B. Lang, T. Auckenthaler, A. Heinecke, 
 H. Bungartz, H. Lederer.
 J. Phys. Condens. Matter 26, 213201 (2014).
 The ELPA library: scalable parallel eigenvalue solutions for electronic 
 structure theory and computational science.
 https://doi.org/10.1088/0953-8984/26/21/213201

 J. VandeVondele, J. Hutter.
 J. Chem. Phys. 127, 114105 (2007).
 Gaussian basis sets for accurate calculations on molecular systems in gas and 
 condensed phases.
 https://doi.org/10.1063/1.2770708

 J. VandeVondele, M. Krack, F. Mohamed, M. Parrinello, T. Chassaing, J. Hutter.
 Comput. Phys. Commun. 167, 103-128 (2005).
 QUICKSTEP: Fast and accurate density functional calculations using a mixed 
 Gaussian and plane waves approach.
 https://doi.org/10.1016/j.cpc.2004.12.014

 M. Krack.
 Theor. Chem. Acc. 114, 145-152 (2005).
 Pseudopotentials for H to Kr optimized for gradient-corrected 
 exchange-correlation functionals.
 https://doi.org/10.1007/s00214-005-0655-y

 M. Frigo, S. G. Johnson.
 Proc. IEEE 93, 216-231 (2005).
 The design and implementation of FFTW3.
 https://doi.org/10.1109/JPROC.2004.840301

 C. Hartwigsen, S. Goedecker, J. Hutter.
 Phys. Rev. B 58, 3641-3662 (1998).
 Relativistic separable dual-space Gaussian pseudopotentials from H to Rn.
 https://doi.org/10.1103/PhysRevB.58.3641

 G. Lippert, J. Hutter, M. Parrinello.
 Mol. Phys. 92, 477-487 (1997).
 A hybrid Gaussian and plane wave density functional scheme.
 https://doi.org/10.1080/002689797170220

 S. Goedecker, M. Teter, J. Hutter.
 Phys. Rev. B 54, 1703-1710 (1996).
 Separable dual-space Gaussian pseudopotentials.
 https://doi.org/10.1103/PhysRevB.54.1703

 J. P. Perdew, K. Burke, M. Ernzerhof.
 Phys. Rev. Lett. 77, 3865-3868 (1996).
 Generalized gradient approximation made simple.
 https://doi.org/10.1103/PhysRevLett.77.3865


 -------------------------------------------------------------------------------
 -                                                                             -
 -                                T I M I N G                                  -
 -                                                                             -
 -------------------------------------------------------------------------------
 SUBROUTINE                       CALLS  ASD         SELF TIME        TOTAL TIME
                                MAXIMUM       AVERAGE  MAXIMUM  AVERAGE  MAXIMUM
 CP2K                                 1  1.0     0.25     0.52 20545.10 20545.51
 qs_energies                          1  2.0     0.01     0.04 20528.48 20528.91
 qs_energies_properties               1  3.0     0.00     0.00 20071.59 20072.00
 post_scf_bandstructure               1  4.0     0.00     0.02 20071.59 20072.00
 gw                                   1  5.0     0.01     0.02 20027.07 20027.47
 gw_calc_small_cell_full_kp           1  6.0     0.00     0.00 19966.82 19967.20
 compute_W_real_space                 1  7.0     7.12     7.60 13338.96 13339.34
 compute_Minv_and_Vsqrt               1  8.0     0.05     0.06  9476.76  9477.01
 build_2c_coulomb_matrix_kp_sma       2  9.0     6.31    29.54  9464.27  9464.51
 build_2c_coulomb_matrix_kp_sma 1474560 10.0  8708.57  8786.29  8708.57  8786.29
 compute_chi                          1  7.0     0.04     0.25  3517.62  3517.83
 fm_to_local_array                  934  8.1    92.33    93.02  3134.77  3135.48
 mp_sum_dm3                        1054  9.0  3070.59  3072.28  3070.59  3072.28
 dbt_total                      9405583  9.6    13.32    17.05  2291.01  3047.96
 dbt_contract                   3850692 10.4    24.27    30.85  2044.90  2721.55
 dbt_tas_multiply               4763362 12.9     3.67     4.81  1853.57  2505.43
 dbt_tas_total                  4763362 13.9   120.68   156.88  1851.21  2502.50
 compute_Sigma_c                      1  7.0     0.00     0.00  2343.83  2344.14
 G_occ_vir                          121  8.0     0.65     0.76  2035.98  2041.08
 dbcsr_complete_redistribute    1035705  9.7    21.51    33.72  1607.70  1833.50
 mp_sync                        ******* 12.4  1237.02  1739.76  1237.02  1739.76
 mp_alltoall_i22                1886075 10.1  1309.64  1559.65  1309.64  1559.65
 fm_to_local_tensor              335768  9.0     6.29     7.40  1496.36  1496.83
 copy_fm_to_dbcsr                471919  9.4     0.95     1.00  1093.03  1309.92
 dbt_tas_estimate_result_nze    2381681 13.4   105.98   141.17   805.70  1107.71
 global_matrix_to_local_matrix   335768 10.0     6.91     9.53   368.89  1103.62
 send_data                       335768 11.0     0.23     0.27   254.15  1010.60
 communicate_buffer              335768 12.0     1.82    37.61   253.92  1010.33
 contract_M_occ_vir_to_chi           62  8.0    22.02    27.37   470.04   950.79
 contract_to_Sigma                  117  8.0    17.79    20.07   731.27   903.03
 mp_waitall_1                   3032527 11.3   251.61   883.37   251.61   883.37
 parallel_gemm_cfm               592640  9.0     0.40     0.48   841.01   867.92
 parallel_gemm_cfm_cosma         592640 10.0   840.61   867.55   840.61   867.55
 G_times_3c                       14830  8.0     9.34    10.63   628.82   786.40
 copy_dbcsr_to_fm                563786  8.1     3.04     3.21   723.75   752.10
 contract_W                          61  8.0     6.93     7.88   589.99   668.49
 dbt_tas_dbm                    4763362 14.9     3.29     4.25   429.15   612.93
 dbm_multiply                   4763362 16.9   422.16   603.77   422.16   603.77
 compute_QP_energies                  1  7.0     0.22     0.32   586.45   586.92
 trafo_to_k_and_nn               149572  8.0     0.51     0.60   585.43   585.85
 reshape_mm_small               4763362 14.9   225.97   290.25   410.29   519.29
 contract_to_Sigma_3c_x_G        861118  9.0     1.04     1.18   452.55   503.43
 add_ikp_to_rs                  *******  3.3   427.29   484.76   427.29   484.76
 scf_env_do_scf                       1  3.0     0.00     0.00   455.68   455.68
 scf_env_do_scf_inner_loop           59  4.0     0.01     0.02   455.68   455.68
 local_dbt_to_global_fm              91  8.0     0.35     0.37   453.47   453.48
 mp_sum_dm                      1474618 10.0   405.07   440.77   405.07   440.77
 qs_scf_new_mos_kp                   59  5.0     0.00     0.00   439.12   439.23
 do_general_diag_kp                  59  6.0     0.66     0.71   439.12   439.23
 contract_to_Sigma_contract       13866  9.0     8.58     9.48   250.88   373.99
 dbt_copy                       5922651 10.9    21.37    27.52   276.06   371.19
 add_ikp_to_all_rs                11079  8.0     8.51     9.31   341.10   368.90
 add_rs_to_ikp                  ******* -2.1   320.84   346.87   320.84   346.87
 mp_cart_sub                    1127651 10.1   345.73   346.04   345.73   346.04
 fm_add_ikp_to_rs                278784  9.0   184.98   192.62   279.72   311.43
 dbt_tas_create_split           ******* 15.9     6.73     8.82   239.17   308.89
 dbt_tas_create_split_rows_or_c ******* 16.9    24.53    32.06   232.44   300.50
 dbt_tas_mm_2                   1985966 16.0     1.10     2.01   148.27   299.62
 trafo_rs_to_ikp                  12078  8.1     9.33     9.94   260.10   284.51
 reshape_mm_compatible          4763362 14.9    31.44    40.96   217.97   279.53
 dbcsr_desymmetrize_deep         850370  8.4     9.87    12.72   243.58   275.38
 dbt_reshape                    3653341 11.8   147.91   202.18   191.32   259.82
 dbm_reserve_blocks             ******* 16.5   138.82   228.81   138.82   228.81
 mult_W_with_Minv                    30  8.0     1.17     1.20   226.37   226.38
 get_V_tr_R                          34  9.0     0.20     0.22   220.65   220.68
 mp_cart_create                 ******* 16.4   175.71   197.13   191.24   216.96
 dbt_tas_distribution_new       ******* 15.5    88.02   106.74   173.98   213.19
 convert_to_new_pgrid           ******* 14.9    14.63    18.85   133.86   210.69
 add_V_L                         737280 10.0     3.09   208.68     3.09   208.68
 change_split                   6412404 15.4    10.39    13.83   145.82   194.58
 dbt_tas_reserve_blocks_index   ******* 15.7     9.01    11.75   118.09   193.58
 dbm_copy                       9526724 15.9   119.24   192.11   119.24   192.11
 fm_trafo_rs_to_ikp              149572  9.0   100.54   105.69   170.60   185.96
 compute_Sigma_x                      1  7.0     0.00     0.00   179.96   180.24
 dbt_tas_mm_1N                  1068754 15.5     0.56     0.72   137.95   180.10
 local_dbt_to_global_mat         201019  9.0     0.49     0.54    79.53   173.48
 dbt_tas_reshape                5507076 15.4    19.11    23.77   129.35   165.75
 get_t_3c_int                   2700554  9.3     4.25     4.75   130.18   160.72
 local_matrix_to_global_matrix   201019 10.0     0.41     0.45    60.55   154.86
 dbt_tas_mm_3T                  1865804 16.1     1.09     1.24   138.97   151.51
 dbt_tas_replicate              4763362 14.9    41.34    48.01   116.47   141.61
 fm_MWM_R_t_to_local_tensor_W_R      30  8.0     0.05     0.05   141.53   141.59
 dbt_remap                       384939 11.0    33.86    43.38   110.18   134.69
 dbt_tas_reserve_blocks_templat 6533274 14.1     7.02     8.65    69.56   125.31
 comm_data                       201019 11.0     0.36     2.11    28.79   120.12
 cp_fm_start_copy_general        407808  7.3     1.87     3.42   116.79   120.00
 mp_waitall_2                    402038 12.0    26.54   116.02    26.54   116.02
 mp_comm_dup                    ******* 18.4    72.86    95.52    80.67   105.05
 dbt_tas_reshape_buffer_obtain  5507076 16.4    20.96    25.23    56.04    79.69
 mp_isend_dv                    ******* 11.1     3.61    79.03     3.61    79.03
 dbm_add                        4763362 14.9    48.91    76.73    48.91    76.73
 mp_alltoall_d11v               5658347 10.6    23.84    76.35    23.84    76.35
 mp_sum_i                       4369305 15.6    71.61    74.32    71.61    74.32
 send_sizes_1                    335768 11.0     0.20     0.23    70.51    73.35
 mp_comm_split_direct           ******* 17.9    50.12    66.00    53.18    69.91
 mp_allgather_i                  815616  8.3    57.18    65.22    57.18    65.22
 mp_comm_free                   ******* 15.3    51.19    64.36    51.19    64.36
 add_R                          *******  9.3    35.82    42.81    52.52    62.37
 dbt_destroy                    ******* 10.4    55.10    59.05    57.99    61.95
 dbt_permute_index              ******* 12.1    42.05    53.86    47.23    60.55
 create_and_init_bs_env_for_gw        1  6.0     0.01     0.02    60.25    60.27
 kpoint_density_transform            59  7.0     0.20     0.21    59.36    59.41
 mp_bcast_im                     815616  8.3    48.15    54.30    48.15    54.30
 dbt_align_index                7145043 11.4     5.88     7.74    36.59    48.10
 get_data                        335768 11.0    13.70    46.85    14.23    47.45
 get_Minv_Vtr_Minv_R                  1  8.0     0.04     0.05    47.08    47.10
 dbt_distribution_new_expert    1441424 12.0     7.65     8.21    42.42    45.83
 dbt_tas_merge                  1985966 15.0    10.78    20.64    19.91    44.48
 dbt_tas_create_new             ******* 15.2    32.64    41.49    32.64    41.49
 dbt_reserve_blocks_index       4596469 13.6     3.98     5.00    25.32    40.94
 mp_alltoall_i11v               3957485 10.5    34.40    40.16    34.40    40.16
 dbt_reserve_blocks_index_array 4212185 12.8     2.41     3.07    23.24    39.97
 dbt_create_matrix               335768 10.0     1.94     2.10    36.93    39.12
 dbt_tas_reshape_buffer_fill    5507076 16.4    33.92    38.81    33.92    38.81
 reshape_mm_template             769878 15.5    23.93    25.86    35.46    38.63
 dbt_tas_copy                   2222020 12.3    16.06    20.74    29.02    36.58
 dbt_copy_nocomm                 648354 11.0    12.31    27.60    16.16    36.33
 mp_alltoall_i                  ******* 15.2    32.31    35.68    32.31    35.68
 is_cell_in_index_to_cell       *******  9.7    30.69    35.39    30.69    35.39
 dbt_tas_mp_comm                2753538 13.0     3.36     4.26    26.98    33.97
 mp_sum_dv                       164342  8.9    24.44    33.33    24.44    33.33
 mp_comm_size                   ******* 16.2    23.91    31.29    23.91    31.29
 create_and_init_bs_env               1  5.0     0.00     0.00    30.33    30.35
 compute_cfm_mo_coeff_kp_and_ei       1  6.0     0.01     0.01    30.27    30.27
 destroy_t_2d                        62  8.0     9.90    11.83    28.37    30.19
 dbt_communicate_buffer         3653341 12.8    20.87    29.88    20.87    29.88
 dbt_create_3c_R1_R2                 62  8.0     8.03     8.54    26.64    27.84
 dbcsr_finalize                 4091094 11.1     6.12     7.43    20.86    26.06
 mp_cart_get                    ******* 15.9    20.06    25.86    20.06    25.86
 power                            22959  8.0     3.27     3.86    21.95    23.49
 dbt_create_new                  720712 11.5     4.63     4.96    21.83    23.48
 compute_3c_integrals                 1  7.0     0.15     0.16    23.28    23.32
 build_3c_integrals                   1  8.0    12.69    13.19    22.40    22.71
 dbt_create_template            6325145  9.0    19.95    20.71    19.95    20.71
 rskp_transform                  143292  7.1     0.29    20.13     0.29    20.13
 diag_complex                     22959  9.0    18.68    20.00    18.68    20.00
 rsmat_to_kp                       7356  7.3     0.06     0.06    19.62    19.83
 cp_cfm_heevd                      5435  8.0     0.00     0.00    18.90    19.42
 cp_cfm_heevd_base                 5435  9.0    18.90    19.42    18.90    19.42
 cp_cfm_geeig_canon                2452  7.0     0.01     0.01    19.22    19.33
 dbt_pgrid_create_expert        1441427 13.0     1.74     1.85    16.72    18.38
 send_sizes_2                    335768 11.0     0.23     0.31    16.81    18.37
 mp_comm_rank                   ******* 16.2    11.91    17.37    11.91    17.37
 trafo_V_xc_R_to_kp                   1  7.0     0.01     0.01    16.41    16.45
 dbt_nd_mp_comm                  720707 11.5     0.98     1.10    13.60    15.35
 dbcsr_filter_anytype           1498208 11.0     2.86     3.01     9.81    15.25
 bs_env_release                       1  2.0     0.24     0.37    13.57    14.96
 dos_pdos_ldos                        1  5.0     0.00     0.00    14.18    14.58
 set_blocks                      201019 11.0     6.36     8.24     9.53    14.49
 mp_waitany                       45500 11.5    13.83    14.35    13.83    14.35
 dbt_create_2c_R                     98  8.0    11.56    13.19    12.45    14.32
 destroy_t_1d                        98  8.0     0.65     0.78    13.31    14.27
 heuristic_RI_regularization          1  7.0     0.00     0.00    13.93    13.93
 mp_isend_im2                   ******* 12.9     0.24    13.64     0.24    13.64
 compute_proj_mo_on_kind           2452  6.0     0.02     0.03    13.21    13.24
 dbcsr_merge_all                1573161 11.8     6.71     8.09     9.59    11.96
 comm_size                       201019 11.0     0.21     0.28    10.85    11.68
 dbt_reserve_blocks_template     648354 12.0     0.56     1.18     3.84    11.30
 dbt_tas_reshape_communicate_bu 5507076 16.4     2.89     3.78     9.04    11.12
 dbt_tas_communicate_buffer     ******* 17.2     8.04    10.42     8.04    10.42
 dbcsr_create_new               3313996 10.1     7.35     8.57     9.06    10.33
 mp_bcast_iv                    1631294  8.3     8.70    10.19     8.70    10.19
 dbm_filter                     7485043 14.8     7.86     9.93     7.86     9.93
 transform_dmat                   67968  8.0     0.12     9.89     0.12     9.89
 transfer_rs2pw                     242  8.0     0.00     0.00     9.39     9.55
 transfer_rs2pw_500                  62  9.0     0.08     0.12     9.22     9.38
 qs_rho_update_rho_low               60  5.0     0.00     0.00     9.34     9.34
 calculate_rho_elec                  60  6.0     0.00     0.00     9.34     9.34
 density_rs2pw                       60  7.0     0.00     0.00     9.10     9.23
 qs_ks_build_kohn_sham_matrix        62  7.0     0.01     0.02     6.80     9.14
 fill_buffer                     201019 11.0     7.10     8.63     7.41     8.94
 sum_up_and_integrate                62  8.0     0.00     0.01     6.49     8.83
 integrate_v_rspace                  62  9.0     0.00     0.00     6.48     8.83
 qs_ks_update_qs_env                 59  5.0     0.00     0.00     6.21     8.44
 rebuild_ks_matrix                   59  6.0     0.00     0.00     5.73     7.96
 mp_sum_l                       ******* 15.0     5.69     7.46     5.69     7.46
 dbcsr_iterator_start           8809669 11.0     5.25     5.63     6.76     7.18
 copy_fm_to_dbcsr_bc             471919 10.4     2.12     2.25     6.60     6.94
 dbt_tas_reshape_get_coord      5507076 16.4     5.22     6.66     5.22     6.66
 mp_max_i                       7701824 11.4     2.93     6.62     2.93     6.62
 potential_pw2rs                     62 10.0     0.00     0.00     6.38     6.38
 transfer_pw2rs                     249 11.0     0.00     0.00     6.28     6.28
 abc_contract_xsmm               302573  9.0     6.00     6.26     6.00     6.26
 dbt_tas_reshape_alltoall       5507076 16.4     2.52     3.45     4.71     6.07
 transfer_pw2rs_500                  63 12.0     0.07     0.09     5.56     5.60
 dbt_copy_matrix_to_tensor       335768 10.0     1.45     1.60     5.33     5.57
 hybrid_alltoall_any             850370  9.4     2.33     2.40     4.45     5.43
 dbcsr_iterator_stop            8809669 11.0     3.86     4.10     4.86     5.11
 dbcsr_destroy                  3086962  9.7     2.56     2.80     4.64     5.00
 dbm_scale                      6114460 14.4     3.44     4.66     3.44     4.66
 reserve_blocks                  335768 11.0     0.80     0.88     3.84     4.59
 setup_parallelization_Delta_R        1  7.0     0.00     0.00     4.36     4.36
 compute_n_tensor_ops_Delta_R         1  8.0     1.05     1.88     4.33     4.33
 dbcsr_data_release             ******* 11.4     3.80     4.29     3.80     4.29
 mp_bcast_i                     ******* 17.9     2.98     4.14     2.98     4.14
 get_coord                       201019 11.0     2.54     2.73     3.57     3.88
 dbt_distribution_destroy       1441424 12.0     2.75     3.01     3.54     3.83
 dbt_reserve_blocks_matrix_to_t  335768 11.0     0.76     0.81     3.47     3.65
 dbcsr_work_create              2423531 10.4     2.12     2.42     3.05     3.64
 dbcsr_data_new                 ******* 10.9     3.15     3.64     3.15     3.64
 mp_sum_iv                           24  6.1     1.93     3.63     1.93     3.63
 mp_dims_create                 ******* 14.2     2.70     3.61     2.70     3.61
 cp_cfm_geeig                       531  7.0     0.00     0.00     3.14     3.54
 dbt_tas_replicate_communicate_ 2910092 15.9     1.65     1.86     2.97     3.51
 dbcsr_reserve_blocks           1301402 12.3     1.85     2.76     2.35     3.41
 kpoint_set_mo_occupation            59  7.0     0.02     0.03     1.52     3.21
 mp_cart_rank                   ******* 15.9     2.55     2.95     2.55     2.95
 dbcsr_set                      3361800 10.6     1.61     1.74     2.52     2.78
 dbt_tas_merge_communicate_buff 1985966 16.0     0.70     1.37     1.27     2.67
 dbcsr_reserve_all_blocks        672938 11.6     0.52     0.55     1.74     2.61
 alloc_block_3c                       1  9.0     0.14     0.19     2.49     2.58
 quick_finalize                  850370 10.4     1.25     1.61     1.98     2.56
 dbt_tas_replicate_alltoall     2910092 15.9     1.44     1.65     2.23     2.54
 dbcsr_work_destroy_all         2423531 11.3     1.58     1.85     2.11     2.45
 grid_integrate_task_list            62 10.0     0.08     2.44     0.08     2.44
 rs_gather_matrices                  62 10.0     0.00     0.01     0.03     2.38
 build_2c_integrals                  34 10.0     0.08     0.94     0.23     2.22
 copy_dbcsr_to_fm_bc             563786  9.1     1.21     1.34     2.09     2.22
 dbt_buffer_get_index           ******* 16.7     1.55     2.08     1.55     2.08
 dbt_tas_merge_alltoall         1985966 16.0     0.63     1.19     1.10     2.08
 -------------------------------------------------------------------------------

 The number of warnings for this run is : 1
 
 -------------------------------------------------------------------------------
  **** **** ******  **  PROGRAM ENDED AT                 2025-10-01 22:56:43.095
 ***** ** ***  *** **   PROGRAM RAN ON                    n2lcn0141.ab2021.local
 **    ****   ******    PROGRAM RAN BY                                  metdyn02
 ***** **    ** ** **   PROGRAM PROCESS ID                                936050
  **** **  *******  **  PROGRAM STOPPED IN /scratch/hpc-prf-metdyn/metdyn02_Remi
                                           /14_hBN/DZVP-MOLOPT
